\ This file has been generated by DOcplex
\ ENCODING=ISO-8859-1
\Problem name: residential_ilp

Maximize
 obj: x_v1_R + x_v2_R + x_v3_R + x_v4_R + x_v5_R + x_v6_R + x_v7_R + x_v8_R
      + x_v9_R + x_v10_R + x_v11_R + x_v12_R + x_v13_R + x_v14_R + x_v15_R
      + x_v16_R + x_v17_R + x_v18_R + x_v19_R + x_v20_R + x_v21_R + x_v22_R
      + x_v23_R + x_v24_R + x_v25_R + x_v26_R + x_v27_R + x_v28_R + x_v29_R
      + x_v30_R + x_v31_R + x_v32_R + x_v33_R + x_v34_R + x_v35_R + x_v36_R
      + x_v37_R + x_v38_R + x_v39_R + x_v40_R + x_v41_R + x_v42_R + x_v43_R
      + x_v44_R + x_v45_R + x_v46_R + x_v47_R + x_v48_R + x_v49_R + x_v50_R
      + x_v51_R + x_v52_R + x_v53_R + x_v54_R + x_v55_R + x_v56_R + x_v57_R
      + x_v58_R + x_v59_R + x_v60_R + x_v61_R + x_v62_R + x_v63_R + x_v64_R
      + x_v65_R + x_v66_R + x_v67_R + x_v68_R + x_v69_R + x_v70_R + x_v71_R
      + x_v72_R + x_v73_R + x_v74_R + x_v75_R + x_v76_R + x_v77_R + x_v78_R
      + x_v79_R + x_v80_R + x_v81_R + x_v82_R + x_v83_R + x_v84_R + x_v85_R
      + x_v86_R + x_v87_R + x_v88_R + x_v89_R + x_v90_R + x_v91_R + x_v92_R
      + x_v93_R + x_v94_R + x_v95_R + x_v96_R + x_v97_R + x_v98_R + x_v99_R
      + x_v100_R
Subject To
 single_type_v1: x_v1_melik + x_v1_okul + x_v1_R <= 1
 single_type_v2: x_v2_melik + x_v2_okul + x_v2_R <= 1
 single_type_v3: x_v3_melik + x_v3_okul + x_v3_R <= 1
 single_type_v4: x_v4_melik + x_v4_okul + x_v4_R <= 1
 single_type_v5: x_v5_melik + x_v5_okul + x_v5_R <= 1
 single_type_v6: x_v6_melik + x_v6_okul + x_v6_R <= 1
 single_type_v7: x_v7_melik + x_v7_okul + x_v7_R <= 1
 single_type_v8: x_v8_melik + x_v8_okul + x_v8_R <= 1
 single_type_v9: x_v9_melik + x_v9_okul + x_v9_R <= 1
 single_type_v10: x_v10_melik + x_v10_okul + x_v10_R <= 1
 single_type_v11: x_v11_melik + x_v11_okul + x_v11_R <= 1
 single_type_v12: x_v12_melik + x_v12_okul + x_v12_R <= 1
 single_type_v13: x_v13_melik + x_v13_okul + x_v13_R <= 1
 single_type_v14: x_v14_melik + x_v14_okul + x_v14_R <= 1
 single_type_v15: x_v15_melik + x_v15_okul + x_v15_R <= 1
 single_type_v16: x_v16_melik + x_v16_okul + x_v16_R <= 1
 single_type_v17: x_v17_melik + x_v17_okul + x_v17_R <= 1
 single_type_v18: x_v18_melik + x_v18_okul + x_v18_R <= 1
 single_type_v19: x_v19_melik + x_v19_okul + x_v19_R <= 1
 single_type_v20: x_v20_melik + x_v20_okul + x_v20_R <= 1
 single_type_v21: x_v21_melik + x_v21_okul + x_v21_R <= 1
 single_type_v22: x_v22_melik + x_v22_okul + x_v22_R <= 1
 single_type_v23: x_v23_melik + x_v23_okul + x_v23_R <= 1
 single_type_v24: x_v24_melik + x_v24_okul + x_v24_R <= 1
 single_type_v25: x_v25_melik + x_v25_okul + x_v25_R <= 1
 single_type_v26: x_v26_melik + x_v26_okul + x_v26_R <= 1
 single_type_v27: x_v27_melik + x_v27_okul + x_v27_R <= 1
 single_type_v28: x_v28_melik + x_v28_okul + x_v28_R <= 1
 single_type_v29: x_v29_melik + x_v29_okul + x_v29_R <= 1
 single_type_v30: x_v30_melik + x_v30_okul + x_v30_R <= 1
 single_type_v31: x_v31_melik + x_v31_okul + x_v31_R <= 1
 single_type_v32: x_v32_melik + x_v32_okul + x_v32_R <= 1
 single_type_v33: x_v33_melik + x_v33_okul + x_v33_R <= 1
 single_type_v34: x_v34_melik + x_v34_okul + x_v34_R <= 1
 single_type_v35: x_v35_melik + x_v35_okul + x_v35_R <= 1
 single_type_v36: x_v36_melik + x_v36_okul + x_v36_R <= 1
 single_type_v37: x_v37_melik + x_v37_okul + x_v37_R <= 1
 single_type_v38: x_v38_melik + x_v38_okul + x_v38_R <= 1
 single_type_v39: x_v39_melik + x_v39_okul + x_v39_R <= 1
 single_type_v40: x_v40_melik + x_v40_okul + x_v40_R <= 1
 single_type_v41: x_v41_melik + x_v41_okul + x_v41_R <= 1
 single_type_v42: x_v42_melik + x_v42_okul + x_v42_R <= 1
 single_type_v43: x_v43_melik + x_v43_okul + x_v43_R <= 1
 single_type_v44: x_v44_melik + x_v44_okul + x_v44_R <= 1
 single_type_v45: x_v45_melik + x_v45_okul + x_v45_R <= 1
 single_type_v46: x_v46_melik + x_v46_okul + x_v46_R <= 1
 single_type_v47: x_v47_melik + x_v47_okul + x_v47_R <= 1
 single_type_v48: x_v48_melik + x_v48_okul + x_v48_R <= 1
 single_type_v49: x_v49_melik + x_v49_okul + x_v49_R <= 1
 single_type_v50: x_v50_melik + x_v50_okul + x_v50_R <= 1
 single_type_v51: x_v51_melik + x_v51_okul + x_v51_R <= 1
 single_type_v52: x_v52_melik + x_v52_okul + x_v52_R <= 1
 single_type_v53: x_v53_melik + x_v53_okul + x_v53_R <= 1
 single_type_v54: x_v54_melik + x_v54_okul + x_v54_R <= 1
 single_type_v55: x_v55_melik + x_v55_okul + x_v55_R <= 1
 single_type_v56: x_v56_melik + x_v56_okul + x_v56_R <= 1
 single_type_v57: x_v57_melik + x_v57_okul + x_v57_R <= 1
 single_type_v58: x_v58_melik + x_v58_okul + x_v58_R <= 1
 single_type_v59: x_v59_melik + x_v59_okul + x_v59_R <= 1
 single_type_v60: x_v60_melik + x_v60_okul + x_v60_R <= 1
 single_type_v61: x_v61_melik + x_v61_okul + x_v61_R <= 1
 single_type_v62: x_v62_melik + x_v62_okul + x_v62_R <= 1
 single_type_v63: x_v63_melik + x_v63_okul + x_v63_R <= 1
 single_type_v64: x_v64_melik + x_v64_okul + x_v64_R <= 1
 single_type_v65: x_v65_melik + x_v65_okul + x_v65_R <= 1
 single_type_v66: x_v66_melik + x_v66_okul + x_v66_R <= 1
 single_type_v67: x_v67_melik + x_v67_okul + x_v67_R <= 1
 single_type_v68: x_v68_melik + x_v68_okul + x_v68_R <= 1
 single_type_v69: x_v69_melik + x_v69_okul + x_v69_R <= 1
 single_type_v70: x_v70_melik + x_v70_okul + x_v70_R <= 1
 single_type_v71: x_v71_melik + x_v71_okul + x_v71_R <= 1
 single_type_v72: x_v72_melik + x_v72_okul + x_v72_R <= 1
 single_type_v73: x_v73_melik + x_v73_okul + x_v73_R <= 1
 single_type_v74: x_v74_melik + x_v74_okul + x_v74_R <= 1
 single_type_v75: x_v75_melik + x_v75_okul + x_v75_R <= 1
 single_type_v76: x_v76_melik + x_v76_okul + x_v76_R <= 1
 single_type_v77: x_v77_melik + x_v77_okul + x_v77_R <= 1
 single_type_v78: x_v78_melik + x_v78_okul + x_v78_R <= 1
 single_type_v79: x_v79_melik + x_v79_okul + x_v79_R <= 1
 single_type_v80: x_v80_melik + x_v80_okul + x_v80_R <= 1
 single_type_v81: x_v81_melik + x_v81_okul + x_v81_R <= 1
 single_type_v82: x_v82_melik + x_v82_okul + x_v82_R <= 1
 single_type_v83: x_v83_melik + x_v83_okul + x_v83_R <= 1
 single_type_v84: x_v84_melik + x_v84_okul + x_v84_R <= 1
 single_type_v85: x_v85_melik + x_v85_okul + x_v85_R <= 1
 single_type_v86: x_v86_melik + x_v86_okul + x_v86_R <= 1
 single_type_v87: x_v87_melik + x_v87_okul + x_v87_R <= 1
 single_type_v88: x_v88_melik + x_v88_okul + x_v88_R <= 1
 single_type_v89: x_v89_melik + x_v89_okul + x_v89_R <= 1
 single_type_v90: x_v90_melik + x_v90_okul + x_v90_R <= 1
 single_type_v91: x_v91_melik + x_v91_okul + x_v91_R <= 1
 single_type_v92: x_v92_melik + x_v92_okul + x_v92_R <= 1
 single_type_v93: x_v93_melik + x_v93_okul + x_v93_R <= 1
 single_type_v94: x_v94_melik + x_v94_okul + x_v94_R <= 1
 single_type_v95: x_v95_melik + x_v95_okul + x_v95_R <= 1
 single_type_v96: x_v96_melik + x_v96_okul + x_v96_R <= 1
 single_type_v97: x_v97_melik + x_v97_okul + x_v97_R <= 1
 single_type_v98: x_v98_melik + x_v98_okul + x_v98_R <= 1
 single_type_v99: x_v99_melik + x_v99_okul + x_v99_R <= 1
 single_type_v100: x_v100_melik + x_v100_okul + x_v100_R <= 1
 rainbow_v1_melik: u_melik_38 + u_melik_43 + u_melik_70 - x_v1_R >= 0
 rainbow_v1_okul: u_okul_5 + u_okul_15 + u_okul_26 + u_okul_29 + u_okul_35
                  + u_okul_36 + u_okul_46 + u_okul_55 - x_v1_R >= 0
 rainbow_v2_melik: u_melik_0 + u_melik_38 + u_melik_43 + u_melik_65 + u_melik_70
                   - x_v2_R >= 0
 rainbow_v2_okul: u_okul_5 + u_okul_15 + u_okul_18 + u_okul_21 + u_okul_26
                  + u_okul_29 + u_okul_35 + u_okul_36 + u_okul_46 + u_okul_55
                  + u_okul_56 - x_v2_R >= 0
 rainbow_v3_melik: u_melik_0 + u_melik_20 + u_melik_38 + u_melik_43 + u_melik_57
                   + u_melik_65 - x_v3_R >= 0
 rainbow_v3_okul: u_okul_5 + u_okul_14 + u_okul_15 + u_okul_18 + u_okul_21
                  + u_okul_26 + u_okul_29 + u_okul_33 + u_okul_35 + u_okul_36
                  + u_okul_46 + u_okul_55 + u_okul_56 + u_okul_67 - x_v3_R >= 0
 rainbow_v4_melik: u_melik_0 + u_melik_18 + u_melik_20 + u_melik_43 + u_melik_48
                   + u_melik_57 - x_v4_R >= 0
 rainbow_v4_okul: u_okul_5 + u_okul_14 + u_okul_15 + u_okul_18 + u_okul_21
                  + u_okul_26 + u_okul_29 + u_okul_30 + u_okul_33 + u_okul_35
                  + u_okul_36 + u_okul_46 + u_okul_47 + u_okul_55 + u_okul_56
                  + u_okul_58 + u_okul_67 - x_v4_R >= 0
 rainbow_v5_melik: u_melik_0 + u_melik_18 + u_melik_20 + u_melik_42 + u_melik_48
                   + u_melik_67 - x_v5_R >= 0
 rainbow_v5_okul: u_okul_5 + u_okul_9 + u_okul_14 + u_okul_15 + u_okul_18
                  + u_okul_21 + u_okul_22 + u_okul_26 + u_okul_29 + u_okul_30
                  + u_okul_33 + u_okul_35 + u_okul_46 + u_okul_47 + u_okul_55
                  + u_okul_56 + u_okul_58 + u_okul_67 + u_okul_71 - x_v5_R >= 0
 rainbow_v6_melik: u_melik_19 + u_melik_20 + u_melik_30 + u_melik_42
                   + u_melik_48 + u_melik_67 - x_v6_R >= 0
 rainbow_v6_okul: u_okul_1 + u_okul_5 + u_okul_9 + u_okul_14 + u_okul_18
                  + u_okul_21 + u_okul_22 + u_okul_29 + u_okul_30 + u_okul_33
                  + u_okul_35 + u_okul_40 + u_okul_47 + u_okul_55 + u_okul_56
                  + u_okul_58 + u_okul_60 + u_okul_67 + u_okul_71 - x_v6_R >= 0
 rainbow_v7_melik: u_melik_19 + u_melik_30 + u_melik_46 + u_melik_48
                   + u_melik_67 + u_melik_76 - x_v7_R >= 0
 rainbow_v7_okul: u_okul_1 + u_okul_5 + u_okul_9 + u_okul_14 + u_okul_18
                  + u_okul_21 + u_okul_22 + u_okul_30 + u_okul_33 + u_okul_40
                  + u_okul_47 + u_okul_55 + u_okul_58 + u_okul_60 + u_okul_65
                  + u_okul_67 + u_okul_71 - x_v7_R >= 0
 rainbow_v8_melik: u_melik_19 + u_melik_29 + u_melik_46 + u_melik_67
                   + u_melik_76 + u_melik_77 - x_v8_R >= 0
 rainbow_v8_okul: u_okul_1 + u_okul_9 + u_okul_14 + u_okul_18 + u_okul_21
                  + u_okul_22 + u_okul_30 + u_okul_33 + u_okul_40 + u_okul_47
                  + u_okul_58 + u_okul_60 + u_okul_65 + u_okul_71 - x_v8_R >= 0
 rainbow_v9_melik: u_melik_19 + u_melik_29 + u_melik_60 + u_melik_76
                   + u_melik_77 - x_v9_R >= 0
 rainbow_v9_okul: u_okul_1 + u_okul_9 + u_okul_14 + u_okul_22 + u_okul_30
                  + u_okul_33 + u_okul_40 + u_okul_47 + u_okul_60 + u_okul_65
                  + u_okul_71 - x_v9_R >= 0
 rainbow_v10_melik: u_melik_60 + u_melik_76 + u_melik_77 - x_v10_R >= 0
 rainbow_v10_okul: u_okul_1 + u_okul_9 + u_okul_22 + u_okul_30 + u_okul_40
                   + u_okul_47 + u_okul_60 + u_okul_65 - x_v10_R >= 0
 rainbow_v11_melik: u_melik_38 + u_melik_43 + u_melik_61 + u_melik_65
                    + u_melik_70 - x_v11_R >= 0
 rainbow_v11_okul: u_okul_5 + u_okul_15 + u_okul_16 + u_okul_26 + u_okul_29
                   + u_okul_35 + u_okul_36 + u_okul_46 + u_okul_55 + u_okul_56
                   + u_okul_57 - x_v11_R >= 0
 rainbow_v12_melik: u_melik_0 + u_melik_38 + u_melik_43 + u_melik_55
                    + u_melik_57 + u_melik_61 + u_melik_65 + u_melik_70
                    - x_v12_R >= 0
 rainbow_v12_okul: u_okul_5 + u_okul_15 + u_okul_16 + u_okul_18 + u_okul_21
                   + u_okul_26 + u_okul_29 + u_okul_35 + u_okul_36 + u_okul_46
                   + u_okul_55 + u_okul_56 + u_okul_57 + u_okul_67 + u_okul_69
                   - x_v12_R >= 0
 rainbow_v13_melik: u_melik_0 + u_melik_18 + u_melik_20 + u_melik_38
                    + u_melik_43 + u_melik_55 + u_melik_57 + u_melik_65
                    + u_melik_70 + u_melik_72 - x_v13_R >= 0
 rainbow_v13_okul: u_okul_2 + u_okul_5 + u_okul_14 + u_okul_15 + u_okul_16
                   + u_okul_18 + u_okul_21 + u_okul_26 + u_okul_29 + u_okul_33
                   + u_okul_35 + u_okul_36 + u_okul_46 + u_okul_55 + u_okul_56
                   + u_okul_57 + u_okul_58 + u_okul_67 + u_okul_69 - x_v13_R
                    >= 0
 rainbow_v14_melik: u_melik_0 + u_melik_18 + u_melik_20 + u_melik_42
                    + u_melik_43 + u_melik_48 + u_melik_53 + u_melik_57
                    + u_melik_65 + u_melik_72 - x_v14_R >= 0
 rainbow_v14_okul: u_okul_2 + u_okul_5 + u_okul_14 + u_okul_15 + u_okul_16
                   + u_okul_18 + u_okul_21 + u_okul_26 + u_okul_29 + u_okul_30
                   + u_okul_33 + u_okul_35 + u_okul_36 + u_okul_46 + u_okul_47
                   + u_okul_53 + u_okul_55 + u_okul_56 + u_okul_57 + u_okul_58
                   + u_okul_67 + u_okul_69 + u_okul_71 - x_v14_R >= 0
 rainbow_v15_melik: u_melik_0 + u_melik_18 + u_melik_20 + u_melik_30
                    + u_melik_42 + u_melik_48 + u_melik_53 + u_melik_57
                    + u_melik_67 + u_melik_74 - x_v15_R >= 0
 rainbow_v15_okul: u_okul_2 + u_okul_5 + u_okul_9 + u_okul_14 + u_okul_15
                   + u_okul_18 + u_okul_21 + u_okul_22 + u_okul_26 + u_okul_29
                   + u_okul_30 + u_okul_33 + u_okul_34 + u_okul_35 + u_okul_36
                   + u_okul_40 + u_okul_46 + u_okul_47 + u_okul_53 + u_okul_55
                   + u_okul_56 + u_okul_57 + u_okul_58 + u_okul_67 + u_okul_69
                   + u_okul_71 - x_v15_R >= 0
 rainbow_v16_melik: u_melik_18 + u_melik_19 + u_melik_20 + u_melik_30
                    + u_melik_42 + u_melik_45 + u_melik_46 + u_melik_48
                    + u_melik_67 + u_melik_74 - x_v16_R >= 0
 rainbow_v16_okul: u_okul_1 + u_okul_2 + u_okul_5 + u_okul_9 + u_okul_14
                   + u_okul_18 + u_okul_19 + u_okul_21 + u_okul_22 + u_okul_29
                   + u_okul_30 + u_okul_33 + u_okul_34 + u_okul_35 + u_okul_40
                   + u_okul_46 + u_okul_47 + u_okul_53 + u_okul_55 + u_okul_56
                   + u_okul_58 + u_okul_60 + u_okul_65 + u_okul_67 + u_okul_69
                   + u_okul_71 - x_v16_R >= 0
 rainbow_v17_melik: u_melik_19 + u_melik_29 + u_melik_30 + u_melik_42
                    + u_melik_45 + u_melik_46 + u_melik_48 + u_melik_66
                    + u_melik_67 + u_melik_76 - x_v17_R >= 0
 rainbow_v17_okul: u_okul_1 + u_okul_2 + u_okul_5 + u_okul_9 + u_okul_14
                   + u_okul_18 + u_okul_19 + u_okul_21 + u_okul_22 + u_okul_30
                   + u_okul_33 + u_okul_34 + u_okul_40 + u_okul_47 + u_okul_53
                   + u_okul_55 + u_okul_56 + u_okul_58 + u_okul_60 + u_okul_65
                   + u_okul_66 + u_okul_67 + u_okul_71 - x_v17_R >= 0
 rainbow_v18_melik: u_melik_19 + u_melik_29 + u_melik_30 + u_melik_40
                    + u_melik_46 + u_melik_60 + u_melik_66 + u_melik_67
                    + u_melik_76 + u_melik_77 - x_v18_R >= 0
 rainbow_v18_okul: u_okul_1 + u_okul_9 + u_okul_14 + u_okul_18 + u_okul_19
                   + u_okul_21 + u_okul_22 + u_okul_30 + u_okul_33 + u_okul_34
                   + u_okul_40 + u_okul_47 + u_okul_53 + u_okul_58 + u_okul_60
                   + u_okul_65 + u_okul_66 + u_okul_67 + u_okul_71 - x_v18_R
                    >= 0
 rainbow_v19_melik: u_melik_19 + u_melik_29 + u_melik_31 + u_melik_40
                    + u_melik_46 + u_melik_60 + u_melik_76 + u_melik_77
                    - x_v19_R >= 0
 rainbow_v19_okul: u_okul_1 + u_okul_9 + u_okul_14 + u_okul_19 + u_okul_22
                   + u_okul_30 + u_okul_33 + u_okul_34 + u_okul_40 + u_okul_47
                   + u_okul_58 + u_okul_60 + u_okul_65 + u_okul_66 + u_okul_71
                   - x_v19_R >= 0
 rainbow_v20_melik: u_melik_29 + u_melik_31 + u_melik_60 + u_melik_76
                    + u_melik_77 - x_v20_R >= 0
 rainbow_v20_okul: u_okul_1 + u_okul_9 + u_okul_19 + u_okul_22 + u_okul_30
                   + u_okul_40 + u_okul_47 + u_okul_60 + u_okul_65 + u_okul_66
                   + u_okul_71 - x_v20_R >= 0
 rainbow_v21_melik: u_melik_22 + u_melik_38 + u_melik_55 + u_melik_61
                    + u_melik_65 + u_melik_70 - x_v21_R >= 0
 rainbow_v21_okul: u_okul_5 + u_okul_15 + u_okul_16 + u_okul_26 + u_okul_29
                   + u_okul_35 + u_okul_36 + u_okul_46 + u_okul_51 + u_okul_55
                   + u_okul_56 + u_okul_57 + u_okul_62 + u_okul_69 - x_v21_R
                    >= 0
 rainbow_v22_melik: u_melik_22 + u_melik_27 + u_melik_38 + u_melik_43
                    + u_melik_55 + u_melik_57 + u_melik_61 + u_melik_65
                    + u_melik_70 + u_melik_72 - x_v22_R >= 0
 rainbow_v22_okul: u_okul_0 + u_okul_2 + u_okul_5 + u_okul_15 + u_okul_16
                   + u_okul_18 + u_okul_21 + u_okul_26 + u_okul_29 + u_okul_35
                   + u_okul_36 + u_okul_46 + u_okul_51 + u_okul_55 + u_okul_56
                   + u_okul_57 + u_okul_62 + u_okul_67 + u_okul_69 - x_v22_R
                    >= 0
 rainbow_v23_melik: u_melik_0 + u_melik_18 + u_melik_27 + u_melik_43
                    + u_melik_53 + u_melik_55 + u_melik_56 + u_melik_57
                    + u_melik_61 + u_melik_65 + u_melik_70 + u_melik_72
                    - x_v23_R >= 0
 rainbow_v23_okul: u_okul_0 + u_okul_2 + u_okul_5 + u_okul_14 + u_okul_15
                   + u_okul_16 + u_okul_18 + u_okul_21 + u_okul_26 + u_okul_29
                   + u_okul_33 + u_okul_35 + u_okul_36 + u_okul_46 + u_okul_51
                   + u_okul_52 + u_okul_53 + u_okul_55 + u_okul_56 + u_okul_57
                   + u_okul_58 + u_okul_62 + u_okul_67 + u_okul_69 - x_v23_R
                    >= 0
 rainbow_v24_melik: u_melik_0 + u_melik_18 + u_melik_20 + u_melik_42
                    + u_melik_51 + u_melik_53 + u_melik_55 + u_melik_56
                    + u_melik_57 + u_melik_65 + u_melik_72 + u_melik_74
                    - x_v24_R >= 0
 rainbow_v24_okul: u_okul_0 + u_okul_2 + u_okul_5 + u_okul_14 + u_okul_15
                   + u_okul_16 + u_okul_18 + u_okul_21 + u_okul_26 + u_okul_29
                   + u_okul_30 + u_okul_33 + u_okul_34 + u_okul_35 + u_okul_36
                   + u_okul_41 + u_okul_46 + u_okul_47 + u_okul_51 + u_okul_52
                   + u_okul_53 + u_okul_55 + u_okul_56 + u_okul_57 + u_okul_58
                   + u_okul_62 + u_okul_67 + u_okul_69 + u_okul_71 - x_v24_R
                    >= 0
 rainbow_v25_melik: u_melik_18 + u_melik_20 + u_melik_30 + u_melik_42
                    + u_melik_45 + u_melik_48 + u_melik_51 + u_melik_53
                    + u_melik_57 + u_melik_59 + u_melik_72 + u_melik_74
                    - x_v25_R >= 0
 rainbow_v25_okul: u_okul_0 + u_okul_2 + u_okul_5 + u_okul_9 + u_okul_14
                   + u_okul_15 + u_okul_16 + u_okul_18 + u_okul_19 + u_okul_21
                   + u_okul_22 + u_okul_26 + u_okul_29 + u_okul_30 + u_okul_33
                   + u_okul_34 + u_okul_35 + u_okul_36 + u_okul_40 + u_okul_41
                   + u_okul_46 + u_okul_47 + u_okul_51 + u_okul_52 + u_okul_53
                   + u_okul_55 + u_okul_56 + u_okul_57 + u_okul_58 + u_okul_67
                   + u_okul_68 + u_okul_69 + u_okul_71 - x_v25_R >= 0
 rainbow_v26_melik: u_melik_18 + u_melik_24 + u_melik_30 + u_melik_42
                    + u_melik_45 + u_melik_46 + u_melik_48 + u_melik_53
                    + u_melik_59 + u_melik_66 + u_melik_67 + u_melik_74
                    - x_v26_R >= 0
 rainbow_v26_okul: u_okul_0 + u_okul_1 + u_okul_2 + u_okul_5 + u_okul_6
                   + u_okul_9 + u_okul_14 + u_okul_18 + u_okul_19 + u_okul_21
                   + u_okul_22 + u_okul_29 + u_okul_30 + u_okul_33 + u_okul_34
                   + u_okul_35 + u_okul_40 + u_okul_41 + u_okul_46 + u_okul_47
                   + u_okul_52 + u_okul_53 + u_okul_55 + u_okul_56 + u_okul_57
                   + u_okul_58 + u_okul_60 + u_okul_65 + u_okul_66 + u_okul_67
                   + u_okul_68 + u_okul_69 + u_okul_71 - x_v26_R >= 0
 rainbow_v27_melik: u_melik_19 + u_melik_24 + u_melik_29 + u_melik_30
                    + u_melik_34 + u_melik_40 + u_melik_42 + u_melik_45
                    + u_melik_46 + u_melik_66 + u_melik_67 + u_melik_74
                    - x_v27_R >= 0
 rainbow_v27_okul: u_okul_1 + u_okul_2 + u_okul_3 + u_okul_5 + u_okul_6
                   + u_okul_9 + u_okul_14 + u_okul_18 + u_okul_19 + u_okul_21
                   + u_okul_22 + u_okul_30 + u_okul_33 + u_okul_34 + u_okul_40
                   + u_okul_41 + u_okul_47 + u_okul_52 + u_okul_53 + u_okul_55
                   + u_okul_56 + u_okul_58 + u_okul_60 + u_okul_65 + u_okul_66
                   + u_okul_67 + u_okul_68 + u_okul_69 + u_okul_71 - x_v27_R
                    >= 0
 rainbow_v28_melik: u_melik_19 + u_melik_26 + u_melik_29 + u_melik_30
                    + u_melik_31 + u_melik_34 + u_melik_40 + u_melik_45
                    + u_melik_46 + u_melik_60 + u_melik_66 + u_melik_76
                    - x_v28_R >= 0
 rainbow_v28_okul: u_okul_1 + u_okul_2 + u_okul_3 + u_okul_6 + u_okul_9
                   + u_okul_14 + u_okul_18 + u_okul_19 + u_okul_21 + u_okul_22
                   + u_okul_30 + u_okul_33 + u_okul_34 + u_okul_40 + u_okul_41
                   + u_okul_47 + u_okul_53 + u_okul_58 + u_okul_60 + u_okul_65
                   + u_okul_66 + u_okul_67 + u_okul_68 + u_okul_71 - x_v28_R
                    >= 0
 rainbow_v29_melik: u_melik_26 + u_melik_29 + u_melik_31 + u_melik_40
                    + u_melik_46 + u_melik_50 + u_melik_60 + u_melik_66
                    + u_melik_76 + u_melik_77 - x_v29_R >= 0
 rainbow_v29_okul: u_okul_1 + u_okul_3 + u_okul_6 + u_okul_9 + u_okul_14
                   + u_okul_19 + u_okul_22 + u_okul_30 + u_okul_33 + u_okul_34
                   + u_okul_40 + u_okul_47 + u_okul_53 + u_okul_58 + u_okul_60
                   + u_okul_65 + u_okul_66 + u_okul_68 + u_okul_71 - x_v29_R
                    >= 0
 rainbow_v30_melik: u_melik_29 + u_melik_31 + u_melik_40 + u_melik_50
                    + u_melik_60 + u_melik_77 - x_v30_R >= 0
 rainbow_v30_okul: u_okul_1 + u_okul_3 + u_okul_6 + u_okul_9 + u_okul_19
                   + u_okul_22 + u_okul_30 + u_okul_34 + u_okul_40 + u_okul_47
                   + u_okul_60 + u_okul_65 + u_okul_66 + u_okul_71 - x_v30_R
                    >= 0
 rainbow_v31_melik: u_melik_22 + u_melik_27 + u_melik_55 + u_melik_61
                    + u_melik_70 + u_melik_79 - x_v31_R >= 0
 rainbow_v31_okul: u_okul_0 + u_okul_5 + u_okul_7 + u_okul_15 + u_okul_16
                   + u_okul_26 + u_okul_28 + u_okul_29 + u_okul_35 + u_okul_36
                   + u_okul_46 + u_okul_51 + u_okul_56 + u_okul_57 + u_okul_62
                   + u_okul_69 - x_v31_R >= 0
 rainbow_v32_melik: u_melik_22 + u_melik_27 + u_melik_44 + u_melik_55
                    + u_melik_56 + u_melik_61 + u_melik_65 + u_melik_70
                    + u_melik_72 + u_melik_79 - x_v32_R >= 0
 rainbow_v32_okul: u_okul_0 + u_okul_2 + u_okul_5 + u_okul_7 + u_okul_15
                   + u_okul_16 + u_okul_21 + u_okul_26 + u_okul_28 + u_okul_29
                   + u_okul_35 + u_okul_36 + u_okul_37 + u_okul_46 + u_okul_51
                   + u_okul_52 + u_okul_55 + u_okul_56 + u_okul_57 + u_okul_62
                   + u_okul_67 + u_okul_69 - x_v32_R >= 0
 rainbow_v33_melik: u_melik_12 + u_melik_22 + u_melik_27 + u_melik_44
                    + u_melik_51 + u_melik_53 + u_melik_55 + u_melik_56
                    + u_melik_57 + u_melik_61 + u_melik_65 + u_melik_72
                    - x_v33_R >= 0
 rainbow_v33_okul: u_okul_0 + u_okul_2 + u_okul_5 + u_okul_7 + u_okul_15
                   + u_okul_16 + u_okul_18 + u_okul_21 + u_okul_26 + u_okul_28
                   + u_okul_29 + u_okul_33 + u_okul_35 + u_okul_36 + u_okul_37
                   + u_okul_39 + u_okul_41 + u_okul_46 + u_okul_51 + u_okul_52
                   + u_okul_53 + u_okul_55 + u_okul_56 + u_okul_57 + u_okul_58
                   + u_okul_62 + u_okul_67 + u_okul_69 - x_v33_R >= 0
 rainbow_v34_melik: u_melik_12 + u_melik_18 + u_melik_27 + u_melik_51
                    + u_melik_53 + u_melik_55 + u_melik_56 + u_melik_57
                    + u_melik_59 + u_melik_72 + u_melik_74 + u_melik_80
                    - x_v34_R >= 0
 rainbow_v34_okul: u_okul_0 + u_okul_2 + u_okul_5 + u_okul_7 + u_okul_14
                   + u_okul_15 + u_okul_16 + u_okul_18 + u_okul_21 + u_okul_25
                   + u_okul_26 + u_okul_28 + u_okul_29 + u_okul_30 + u_okul_33
                   + u_okul_34 + u_okul_35 + u_okul_36 + u_okul_37 + u_okul_39
                   + u_okul_41 + u_okul_46 + u_okul_51 + u_okul_52 + u_okul_53
                   + u_okul_55 + u_okul_56 + u_okul_57 + u_okul_58 + u_okul_62
                   + u_okul_67 + u_okul_68 + u_okul_69 + u_okul_71 - x_v34_R
                    >= 0
 rainbow_v35_melik: u_melik_18 + u_melik_24 + u_melik_42 + u_melik_45
                    + u_melik_51 + u_melik_53 + u_melik_56 + u_melik_59
                    + u_melik_69 + u_melik_72 + u_melik_74 + u_melik_80
                    - x_v35_R >= 0
 rainbow_v35_okul: u_okul_0 + u_okul_2 + u_okul_5 + u_okul_6 + u_okul_7
                   + u_okul_14 + u_okul_16 + u_okul_18 + u_okul_19 + u_okul_21
                   + u_okul_22 + u_okul_25 + u_okul_26 + u_okul_29 + u_okul_30
                   + u_okul_33 + u_okul_34 + u_okul_35 + u_okul_36 + u_okul_37
                   + u_okul_39 + u_okul_40 + u_okul_41 + u_okul_46 + u_okul_47
                   + u_okul_49 + u_okul_51 + u_okul_52 + u_okul_53 + u_okul_55
                   + u_okul_56 + u_okul_57 + u_okul_58 + u_okul_62 + u_okul_67
                   + u_okul_68 + u_okul_69 + u_okul_71 - x_v35_R >= 0
 rainbow_v36_melik: u_melik_24 + u_melik_30 + u_melik_34 + u_melik_37
                    + u_melik_42 + u_melik_45 + u_melik_51 + u_melik_53
                    + u_melik_59 + u_melik_66 + u_melik_69 + u_melik_74
                    - x_v36_R >= 0
 rainbow_v36_okul: u_okul_0 + u_okul_1 + u_okul_2 + u_okul_3 + u_okul_5
                   + u_okul_6 + u_okul_9 + u_okul_14 + u_okul_18 + u_okul_19
                   + u_okul_21 + u_okul_22 + u_okul_25 + u_okul_30 + u_okul_33
                   + u_okul_34 + u_okul_35 + u_okul_37 + u_okul_39 + u_okul_40
                   + u_okul_41 + u_okul_46 + u_okul_47 + u_okul_49 + u_okul_51
                   + u_okul_52 + u_okul_53 + u_okul_55 + u_okul_56 + u_okul_57
                   + u_okul_58 + u_okul_59 + u_okul_65 + u_okul_66 + u_okul_67
                   + u_okul_68 + u_okul_69 + u_okul_71 - x_v36_R >= 0
 rainbow_v37_melik: u_melik_7 + u_melik_24 + u_melik_26 + u_melik_30
                    + u_melik_34 + u_melik_37 + u_melik_40 + u_melik_45
                    + u_melik_46 + u_melik_59 + u_melik_66 + u_melik_74
                    - x_v37_R >= 0
 rainbow_v37_okul: u_okul_0 + u_okul_1 + u_okul_2 + u_okul_3 + u_okul_5
                   + u_okul_6 + u_okul_9 + u_okul_11 + u_okul_14 + u_okul_18
                   + u_okul_19 + u_okul_21 + u_okul_22 + u_okul_25 + u_okul_30
                   + u_okul_33 + u_okul_34 + u_okul_39 + u_okul_40 + u_okul_41
                   + u_okul_47 + u_okul_49 + u_okul_52 + u_okul_53 + u_okul_56
                   + u_okul_58 + u_okul_59 + u_okul_60 + u_okul_65 + u_okul_66
                   + u_okul_67 + u_okul_68 + u_okul_69 + u_okul_71 - x_v37_R
                    >= 0
 rainbow_v38_melik: u_melik_7 + u_melik_24 + u_melik_26 + u_melik_29
                    + u_melik_31 + u_melik_34 + u_melik_40 + u_melik_45
                    + u_melik_46 + u_melik_47 + u_melik_50 + u_melik_66
                    - x_v38_R >= 0
 rainbow_v38_okul: u_okul_1 + u_okul_2 + u_okul_3 + u_okul_6 + u_okul_9
                   + u_okul_11 + u_okul_14 + u_okul_19 + u_okul_21 + u_okul_22
                   + u_okul_25 + u_okul_30 + u_okul_33 + u_okul_34 + u_okul_40
                   + u_okul_41 + u_okul_47 + u_okul_49 + u_okul_52 + u_okul_53
                   + u_okul_58 + u_okul_59 + u_okul_60 + u_okul_65 + u_okul_66
                   + u_okul_67 + u_okul_68 + u_okul_71 - x_v38_R >= 0
 rainbow_v39_melik: u_melik_26 + u_melik_29 + u_melik_31 + u_melik_34
                    + u_melik_40 + u_melik_47 + u_melik_50 + u_melik_60
                    + u_melik_66 + u_melik_68 - x_v39_R >= 0
 rainbow_v39_okul: u_okul_1 + u_okul_3 + u_okul_6 + u_okul_9 + u_okul_11
                   + u_okul_19 + u_okul_22 + u_okul_30 + u_okul_33 + u_okul_34
                   + u_okul_40 + u_okul_41 + u_okul_47 + u_okul_49 + u_okul_53
                   + u_okul_58 + u_okul_59 + u_okul_60 + u_okul_65 + u_okul_66
                   + u_okul_68 + u_okul_71 - x_v39_R >= 0
 rainbow_v40_melik: u_melik_26 + u_melik_31 + u_melik_40 + u_melik_50
                    + u_melik_60 + u_melik_68 - x_v40_R >= 0
 rainbow_v40_okul: u_okul_1 + u_okul_3 + u_okul_6 + u_okul_9 + u_okul_11
                   + u_okul_19 + u_okul_22 + u_okul_30 + u_okul_34 + u_okul_40
                   + u_okul_59 + u_okul_60 + u_okul_65 + u_okul_66 + u_okul_68
                   + u_okul_71 - x_v40_R >= 0
 rainbow_v41_melik: u_melik_22 + u_melik_27 + u_melik_44 + u_melik_54
                    + u_melik_61 + u_melik_79 - x_v41_R >= 0
 rainbow_v41_okul: u_okul_0 + u_okul_7 + u_okul_16 + u_okul_26 + u_okul_28
                   + u_okul_31 + u_okul_35 + u_okul_36 + u_okul_37 + u_okul_46
                   + u_okul_51 + u_okul_56 + u_okul_57 + u_okul_62 + u_okul_63
                   + u_okul_69 - x_v41_R >= 0
 rainbow_v42_melik: u_melik_12 + u_melik_22 + u_melik_27 + u_melik_44
                    + u_melik_54 + u_melik_55 + u_melik_56 + u_melik_61
                    + u_melik_71 + u_melik_79 - x_v42_R >= 0
 rainbow_v42_okul: u_okul_0 + u_okul_2 + u_okul_5 + u_okul_7 + u_okul_16
                   + u_okul_26 + u_okul_28 + u_okul_31 + u_okul_35 + u_okul_36
                   + u_okul_37 + u_okul_39 + u_okul_42 + u_okul_46 + u_okul_51
                   + u_okul_52 + u_okul_56 + u_okul_57 + u_okul_62 + u_okul_63
                   + u_okul_67 + u_okul_69 - x_v42_R >= 0
 rainbow_v43_melik: u_melik_12 + u_melik_22 + u_melik_27 + u_melik_41
                    + u_melik_44 + u_melik_51 + u_melik_55 + u_melik_56
                    + u_melik_71 + u_melik_72 + u_melik_79 + u_melik_80
                    - x_v43_R >= 0
 rainbow_v43_okul: u_okul_0 + u_okul_2 + u_okul_5 + u_okul_7 + u_okul_10
                   + u_okul_16 + u_okul_21 + u_okul_25 + u_okul_26 + u_okul_28
                   + u_okul_31 + u_okul_35 + u_okul_36 + u_okul_37 + u_okul_39
                   + u_okul_41 + u_okul_42 + u_okul_46 + u_okul_51 + u_okul_52
                   + u_okul_53 + u_okul_56 + u_okul_57 + u_okul_58 + u_okul_62
                   + u_okul_63 + u_okul_67 + u_okul_69 - x_v43_R >= 0
 rainbow_v44_melik: u_melik_12 + u_melik_27 + u_melik_28 + u_melik_41
                    + u_melik_44 + u_melik_51 + u_melik_53 + u_melik_56
                    + u_melik_59 + u_melik_69 + u_melik_72 + u_melik_80
                    - x_v44_R >= 0
 rainbow_v44_okul: u_okul_0 + u_okul_2 + u_okul_5 + u_okul_7 + u_okul_10
                   + u_okul_12 + u_okul_16 + u_okul_21 + u_okul_25 + u_okul_26
                   + u_okul_28 + u_okul_31 + u_okul_33 + u_okul_34 + u_okul_35
                   + u_okul_36 + u_okul_37 + u_okul_39 + u_okul_41 + u_okul_42
                   + u_okul_46 + u_okul_49 + u_okul_51 + u_okul_52 + u_okul_53
                   + u_okul_56 + u_okul_57 + u_okul_58 + u_okul_62 + u_okul_63
                   + u_okul_67 + u_okul_68 + u_okul_69 + u_okul_71 - x_v44_R
                    >= 0
 rainbow_v45_melik: u_melik_12 + u_melik_24 + u_melik_28 + u_melik_37
                    + u_melik_51 + u_melik_53 + u_melik_56 + u_melik_59
                    + u_melik_69 + u_melik_74 + u_melik_78 + u_melik_80
                    - x_v45_R >= 0
 rainbow_v45_okul: u_okul_0 + u_okul_2 + u_okul_5 + u_okul_6 + u_okul_7
                   + u_okul_10 + u_okul_12 + u_okul_16 + u_okul_19 + u_okul_21
                   + u_okul_25 + u_okul_28 + u_okul_30 + u_okul_31 + u_okul_32
                   + u_okul_33 + u_okul_34 + u_okul_35 + u_okul_36 + u_okul_37
                   + u_okul_39 + u_okul_40 + u_okul_41 + u_okul_42 + u_okul_46
                   + u_okul_49 + u_okul_51 + u_okul_52 + u_okul_53 + u_okul_56
                   + u_okul_57 + u_okul_58 + u_okul_59 + u_okul_62 + u_okul_67
                   + u_okul_68 + u_okul_69 + u_okul_71 - x_v45_R >= 0
 rainbow_v46_melik: u_melik_7 + u_melik_10 + u_melik_24 + u_melik_34
                    + u_melik_37 + u_melik_45 + u_melik_51 + u_melik_59
                    + u_melik_69 + u_melik_74 + u_melik_78 + u_melik_80
                    - x_v46_R >= 0
 rainbow_v46_okul: u_okul_0 + u_okul_2 + u_okul_3 + u_okul_5 + u_okul_6
                   + u_okul_7 + u_okul_10 + u_okul_11 + u_okul_12 + u_okul_19
                   + u_okul_21 + u_okul_22 + u_okul_25 + u_okul_30 + u_okul_32
                   + u_okul_33 + u_okul_34 + u_okul_37 + u_okul_39 + u_okul_40
                   + u_okul_41 + u_okul_42 + u_okul_46 + u_okul_49 + u_okul_51
                   + u_okul_52 + u_okul_53 + u_okul_56 + u_okul_57 + u_okul_58
                   + u_okul_59 + u_okul_65 + u_okul_66 + u_okul_67 + u_okul_68
                   + u_okul_69 + u_okul_70 + u_okul_71 - x_v46_R >= 0
 rainbow_v47_melik: u_melik_7 + u_melik_10 + u_melik_24 + u_melik_26
                    + u_melik_34 + u_melik_37 + u_melik_45 + u_melik_47
                    + u_melik_59 + u_melik_63 + u_melik_66 + u_melik_69
                    - x_v47_R >= 0
 rainbow_v47_okul: u_okul_0 + u_okul_1 + u_okul_2 + u_okul_3 + u_okul_6
                   + u_okul_10 + u_okul_11 + u_okul_12 + u_okul_19 + u_okul_21
                   + u_okul_22 + u_okul_25 + u_okul_30 + u_okul_32 + u_okul_33
                   + u_okul_34 + u_okul_37 + u_okul_39 + u_okul_40 + u_okul_41
                   + u_okul_49 + u_okul_52 + u_okul_53 + u_okul_56 + u_okul_58
                   + u_okul_59 + u_okul_61 + u_okul_65 + u_okul_66 + u_okul_67
                   + u_okul_68 + u_okul_69 + u_okul_70 + u_okul_71 - x_v47_R
                    >= 0
 rainbow_v48_melik: u_melik_7 + u_melik_24 + u_melik_26 + u_melik_34
                    + u_melik_37 + u_melik_40 + u_melik_47 + u_melik_49
                    + u_melik_50 + u_melik_63 + u_melik_66 + u_melik_68
                    - x_v48_R >= 0
 rainbow_v48_okul: u_okul_1 + u_okul_2 + u_okul_3 + u_okul_6 + u_okul_11
                   + u_okul_12 + u_okul_19 + u_okul_22 + u_okul_25 + u_okul_30
                   + u_okul_32 + u_okul_33 + u_okul_34 + u_okul_39 + u_okul_40
                   + u_okul_41 + u_okul_49 + u_okul_52 + u_okul_53 + u_okul_58
                   + u_okul_59 + u_okul_61 + u_okul_65 + u_okul_66 + u_okul_67
                   + u_okul_68 + u_okul_70 + u_okul_71 - x_v48_R >= 0
 rainbow_v49_melik: u_melik_7 + u_melik_26 + u_melik_31 + u_melik_34
                    + u_melik_40 + u_melik_47 + u_melik_49 + u_melik_50
                    + u_melik_64 + u_melik_68 - x_v49_R >= 0
 rainbow_v49_okul: u_okul_1 + u_okul_3 + u_okul_6 + u_okul_11 + u_okul_19
                   + u_okul_22 + u_okul_25 + u_okul_30 + u_okul_32 + u_okul_34
                   + u_okul_40 + u_okul_41 + u_okul_49 + u_okul_53 + u_okul_58
                   + u_okul_59 + u_okul_61 + u_okul_65 + u_okul_66 + u_okul_68
                   + u_okul_70 + u_okul_71 - x_v49_R >= 0
 rainbow_v50_melik: u_melik_26 + u_melik_31 + u_melik_47 + u_melik_50
                    + u_melik_64 + u_melik_68 - x_v50_R >= 0
 rainbow_v50_okul: u_okul_1 + u_okul_3 + u_okul_6 + u_okul_11 + u_okul_19
                   + u_okul_22 + u_okul_34 + u_okul_40 + u_okul_49 + u_okul_59
                   + u_okul_61 + u_okul_65 + u_okul_66 + u_okul_68 + u_okul_70
                   + u_okul_71 - x_v50_R >= 0
 rainbow_v51_melik: u_melik_22 + u_melik_36 + u_melik_44 + u_melik_54
                    + u_melik_71 + u_melik_79 - x_v51_R >= 0
 rainbow_v51_okul: u_okul_0 + u_okul_7 + u_okul_16 + u_okul_20 + u_okul_28
                   + u_okul_31 + u_okul_36 + u_okul_37 + u_okul_38 + u_okul_42
                   + u_okul_46 + u_okul_51 + u_okul_57 + u_okul_62 + u_okul_63
                   + u_okul_69 - x_v51_R >= 0
 rainbow_v52_melik: u_melik_12 + u_melik_22 + u_melik_27 + u_melik_36
                    + u_melik_41 + u_melik_44 + u_melik_54 + u_melik_71
                    + u_melik_73 + u_melik_79 - x_v52_R >= 0
 rainbow_v52_okul: u_okul_0 + u_okul_2 + u_okul_7 + u_okul_10 + u_okul_13
                   + u_okul_16 + u_okul_20 + u_okul_28 + u_okul_31 + u_okul_36
                   + u_okul_37 + u_okul_38 + u_okul_39 + u_okul_42 + u_okul_46
                   + u_okul_51 + u_okul_52 + u_okul_56 + u_okul_57 + u_okul_62
                   + u_okul_63 + u_okul_69 - x_v52_R >= 0
 rainbow_v53_melik: u_melik_1 + u_melik_12 + u_melik_27 + u_melik_28
                    + u_melik_41 + u_melik_44 + u_melik_54 + u_melik_56
                    + u_melik_71 + u_melik_73 + u_melik_79 + u_melik_80
                    - x_v53_R >= 0
 rainbow_v53_okul: u_okul_0 + u_okul_2 + u_okul_7 + u_okul_10 + u_okul_12
                   + u_okul_13 + u_okul_16 + u_okul_20 + u_okul_24 + u_okul_25
                   + u_okul_28 + u_okul_31 + u_okul_36 + u_okul_37 + u_okul_38
                   + u_okul_39 + u_okul_41 + u_okul_42 + u_okul_46 + u_okul_51
                   + u_okul_52 + u_okul_53 + u_okul_56 + u_okul_57 + u_okul_62
                   + u_okul_63 + u_okul_67 + u_okul_69 - x_v53_R >= 0
 rainbow_v54_melik: u_melik_1 + u_melik_12 + u_melik_28 + u_melik_41
                    + u_melik_44 + u_melik_51 + u_melik_52 + u_melik_56
                    + u_melik_69 + u_melik_71 + u_melik_78 + u_melik_80
                    - x_v54_R >= 0
 rainbow_v54_okul: u_okul_0 + u_okul_2 + u_okul_7 + u_okul_10 + u_okul_12
                   + u_okul_13 + u_okul_16 + u_okul_20 + u_okul_24 + u_okul_25
                   + u_okul_28 + u_okul_31 + u_okul_32 + u_okul_34 + u_okul_36
                   + u_okul_37 + u_okul_38 + u_okul_39 + u_okul_41 + u_okul_42
                   + u_okul_46 + u_okul_49 + u_okul_51 + u_okul_52 + u_okul_53
                   + u_okul_54 + u_okul_56 + u_okul_57 + u_okul_58 + u_okul_62
                   + u_okul_63 + u_okul_67 + u_okul_68 + u_okul_69 - x_v54_R
                    >= 0
 rainbow_v55_melik: u_melik_10 + u_melik_12 + u_melik_21 + u_melik_28
                    + u_melik_37 + u_melik_41 + u_melik_51 + u_melik_52
                    + u_melik_59 + u_melik_69 + u_melik_78 + u_melik_80
                    - x_v55_R >= 0
 rainbow_v55_okul: u_okul_0 + u_okul_2 + u_okul_6 + u_okul_7 + u_okul_10
                   + u_okul_12 + u_okul_13 + u_okul_16 + u_okul_19 + u_okul_24
                   + u_okul_25 + u_okul_28 + u_okul_31 + u_okul_32 + u_okul_34
                   + u_okul_37 + u_okul_38 + u_okul_39 + u_okul_41 + u_okul_42
                   + u_okul_45 + u_okul_46 + u_okul_49 + u_okul_51 + u_okul_52
                   + u_okul_53 + u_okul_54 + u_okul_56 + u_okul_57 + u_okul_58
                   + u_okul_59 + u_okul_62 + u_okul_63 + u_okul_67 + u_okul_68
                   + u_okul_69 + u_okul_70 + u_okul_71 - x_v55_R >= 0
 rainbow_v56_melik: u_melik_7 + u_melik_10 + u_melik_21 + u_melik_24
                    + u_melik_28 + u_melik_37 + u_melik_39 + u_melik_59
                    + u_melik_63 + u_melik_69 + u_melik_78 + u_melik_80
                    - x_v56_R >= 0
 rainbow_v56_okul: u_okul_0 + u_okul_2 + u_okul_3 + u_okul_6 + u_okul_7
                   + u_okul_8 + u_okul_10 + u_okul_11 + u_okul_12 + u_okul_13
                   + u_okul_19 + u_okul_24 + u_okul_25 + u_okul_31 + u_okul_32
                   + u_okul_34 + u_okul_37 + u_okul_39 + u_okul_40 + u_okul_41
                   + u_okul_42 + u_okul_45 + u_okul_49 + u_okul_51 + u_okul_52
                   + u_okul_53 + u_okul_54 + u_okul_56 + u_okul_57 + u_okul_58
                   + u_okul_59 + u_okul_61 + u_okul_66 + u_okul_67 + u_okul_68
                   + u_okul_69 + u_okul_70 + u_okul_71 - x_v56_R >= 0
 rainbow_v57_melik: u_melik_7 + u_melik_10 + u_melik_11 + u_melik_24
                    + u_melik_34 + u_melik_37 + u_melik_39 + u_melik_47
                    + u_melik_49 + u_melik_63 + u_melik_69 + u_melik_78
                    - x_v57_R >= 0
 rainbow_v57_okul: u_okul_0 + u_okul_2 + u_okul_3 + u_okul_4 + u_okul_6
                   + u_okul_8 + u_okul_10 + u_okul_11 + u_okul_12 + u_okul_19
                   + u_okul_24 + u_okul_25 + u_okul_32 + u_okul_34 + u_okul_37
                   + u_okul_39 + u_okul_40 + u_okul_41 + u_okul_42 + u_okul_45
                   + u_okul_49 + u_okul_52 + u_okul_53 + u_okul_54 + u_okul_58
                   + u_okul_59 + u_okul_61 + u_okul_65 + u_okul_66 + u_okul_67
                   + u_okul_68 + u_okul_69 + u_okul_70 + u_okul_71 - x_v57_R
                    >= 0
 rainbow_v58_melik: u_melik_6 + u_melik_7 + u_melik_10 + u_melik_11 + u_melik_26
                    + u_melik_34 + u_melik_37 + u_melik_47 + u_melik_49
                    + u_melik_63 + u_melik_64 + u_melik_68 - x_v58_R >= 0
 rainbow_v58_okul: u_okul_2 + u_okul_3 + u_okul_4 + u_okul_6 + u_okul_8
                   + u_okul_10 + u_okul_11 + u_okul_12 + u_okul_19 + u_okul_25
                   + u_okul_32 + u_okul_34 + u_okul_39 + u_okul_40 + u_okul_41
                   + u_okul_45 + u_okul_49 + u_okul_52 + u_okul_53 + u_okul_54
                   + u_okul_58 + u_okul_59 + u_okul_61 + u_okul_65 + u_okul_66
                   + u_okul_68 + u_okul_70 + u_okul_71 - x_v58_R >= 0
 rainbow_v59_melik: u_melik_6 + u_melik_7 + u_melik_23 + u_melik_26 + u_melik_47
                    + u_melik_49 + u_melik_50 + u_melik_63 + u_melik_64
                    + u_melik_68 - x_v59_R >= 0
 rainbow_v59_okul: u_okul_3 + u_okul_4 + u_okul_6 + u_okul_8 + u_okul_11
                   + u_okul_12 + u_okul_19 + u_okul_25 + u_okul_32 + u_okul_34
                   + u_okul_40 + u_okul_41 + u_okul_45 + u_okul_49 + u_okul_53
                   + u_okul_59 + u_okul_61 + u_okul_65 + u_okul_66 + u_okul_68
                   + u_okul_70 + u_okul_71 - x_v59_R >= 0
 rainbow_v60_melik: u_melik_23 + u_melik_47 + u_melik_49 + u_melik_50
                    + u_melik_64 + u_melik_68 - x_v60_R >= 0
 rainbow_v60_okul: u_okul_3 + u_okul_4 + u_okul_6 + u_okul_8 + u_okul_11
                   + u_okul_19 + u_okul_32 + u_okul_34 + u_okul_40 + u_okul_49
                   + u_okul_59 + u_okul_61 + u_okul_65 + u_okul_66 + u_okul_68
                   + u_okul_70 - x_v60_R >= 0
 rainbow_v61_melik: u_melik_32 + u_melik_36 + u_melik_54 + u_melik_71
                    + u_melik_73 + u_melik_79 - x_v61_R >= 0
 rainbow_v61_okul: u_okul_0 + u_okul_7 + u_okul_13 + u_okul_16 + u_okul_17
                   + u_okul_20 + u_okul_28 + u_okul_31 + u_okul_37 + u_okul_38
                   + u_okul_42 + u_okul_48 + u_okul_51 + u_okul_57 + u_okul_62
                   + u_okul_63 - x_v61_R >= 0
 rainbow_v62_melik: u_melik_1 + u_melik_5 + u_melik_32 + u_melik_36 + u_melik_41
                    + u_melik_44 + u_melik_54 + u_melik_71 + u_melik_73
                    + u_melik_79 - x_v62_R >= 0
 rainbow_v62_okul: u_okul_0 + u_okul_7 + u_okul_10 + u_okul_13 + u_okul_16
                   + u_okul_17 + u_okul_20 + u_okul_24 + u_okul_28 + u_okul_31
                   + u_okul_37 + u_okul_38 + u_okul_39 + u_okul_42 + u_okul_48
                   + u_okul_50 + u_okul_51 + u_okul_52 + u_okul_57 + u_okul_62
                   + u_okul_63 + u_okul_69 - x_v62_R >= 0
 rainbow_v63_melik: u_melik_1 + u_melik_2 + u_melik_5 + u_melik_12 + u_melik_28
                    + u_melik_36 + u_melik_41 + u_melik_44 + u_melik_52
                    + u_melik_54 + u_melik_71 + u_melik_73 - x_v63_R >= 0
 rainbow_v63_okul: u_okul_0 + u_okul_2 + u_okul_7 + u_okul_10 + u_okul_12
                   + u_okul_13 + u_okul_16 + u_okul_17 + u_okul_20 + u_okul_24
                   + u_okul_25 + u_okul_28 + u_okul_31 + u_okul_37 + u_okul_38
                   + u_okul_39 + u_okul_41 + u_okul_42 + u_okul_43 + u_okul_48
                   + u_okul_50 + u_okul_51 + u_okul_52 + u_okul_54 + u_okul_57
                   + u_okul_62 + u_okul_63 + u_okul_69 - x_v63_R >= 0
 rainbow_v64_melik: u_melik_1 + u_melik_2 + u_melik_12 + u_melik_21 + u_melik_28
                    + u_melik_41 + u_melik_52 + u_melik_62 + u_melik_71
                    + u_melik_73 + u_melik_78 + u_melik_80 - x_v64_R >= 0
 rainbow_v64_okul: u_okul_0 + u_okul_2 + u_okul_7 + u_okul_10 + u_okul_12
                   + u_okul_13 + u_okul_16 + u_okul_17 + u_okul_20 + u_okul_24
                   + u_okul_25 + u_okul_27 + u_okul_28 + u_okul_31 + u_okul_32
                   + u_okul_37 + u_okul_38 + u_okul_39 + u_okul_41 + u_okul_42
                   + u_okul_43 + u_okul_45 + u_okul_48 + u_okul_49 + u_okul_50
                   + u_okul_51 + u_okul_52 + u_okul_53 + u_okul_54 + u_okul_57
                   + u_okul_62 + u_okul_63 + u_okul_68 + u_okul_69 - x_v64_R
                    >= 0
 rainbow_v65_melik: u_melik_1 + u_melik_10 + u_melik_21 + u_melik_28
                    + u_melik_35 + u_melik_39 + u_melik_41 + u_melik_52
                    + u_melik_62 + u_melik_69 + u_melik_78 + u_melik_80
                    - x_v65_R >= 0
 rainbow_v65_okul: u_okul_0 + u_okul_2 + u_okul_6 + u_okul_7 + u_okul_8
                   + u_okul_10 + u_okul_12 + u_okul_13 + u_okul_20 + u_okul_24
                   + u_okul_25 + u_okul_27 + u_okul_28 + u_okul_31 + u_okul_32
                   + u_okul_34 + u_okul_37 + u_okul_38 + u_okul_39 + u_okul_41
                   + u_okul_42 + u_okul_43 + u_okul_45 + u_okul_48 + u_okul_49
                   + u_okul_50 + u_okul_51 + u_okul_52 + u_okul_53 + u_okul_54
                   + u_okul_57 + u_okul_59 + u_okul_62 + u_okul_63 + u_okul_64
                   + u_okul_68 + u_okul_69 + u_okul_70 - x_v65_R >= 0
 rainbow_v66_melik: u_melik_4 + u_melik_10 + u_melik_11 + u_melik_21
                    + u_melik_28 + u_melik_35 + u_melik_37 + u_melik_39
                    + u_melik_52 + u_melik_63 + u_melik_69 + u_melik_78
                    - x_v66_R >= 0
 rainbow_v66_okul: u_okul_0 + u_okul_2 + u_okul_3 + u_okul_4 + u_okul_6
                   + u_okul_7 + u_okul_8 + u_okul_10 + u_okul_11 + u_okul_12
                   + u_okul_13 + u_okul_19 + u_okul_24 + u_okul_25 + u_okul_27
                   + u_okul_31 + u_okul_32 + u_okul_34 + u_okul_37 + u_okul_38
                   + u_okul_39 + u_okul_41 + u_okul_42 + u_okul_43 + u_okul_44
                   + u_okul_45 + u_okul_49 + u_okul_50 + u_okul_51 + u_okul_52
                   + u_okul_53 + u_okul_54 + u_okul_59 + u_okul_61 + u_okul_64
                   + u_okul_68 + u_okul_69 + u_okul_70 - x_v66_R >= 0
 rainbow_v67_melik: u_melik_4 + u_melik_6 + u_melik_7 + u_melik_9 + u_melik_10
                    + u_melik_11 + u_melik_21 + u_melik_37 + u_melik_39
                    + u_melik_49 + u_melik_63 + u_melik_78 - x_v67_R >= 0
 rainbow_v67_okul: u_okul_0 + u_okul_2 + u_okul_3 + u_okul_4 + u_okul_6
                   + u_okul_8 + u_okul_10 + u_okul_11 + u_okul_12 + u_okul_13
                   + u_okul_19 + u_okul_23 + u_okul_24 + u_okul_25 + u_okul_27
                   + u_okul_32 + u_okul_34 + u_okul_37 + u_okul_39 + u_okul_41
                   + u_okul_42 + u_okul_43 + u_okul_44 + u_okul_45 + u_okul_49
                   + u_okul_52 + u_okul_53 + u_okul_54 + u_okul_59 + u_okul_61
                   + u_okul_64 + u_okul_66 + u_okul_68 + u_okul_70 - x_v67_R
                    >= 0
 rainbow_v68_melik: u_melik_6 + u_melik_7 + u_melik_9 + u_melik_10 + u_melik_11
                    + u_melik_13 + u_melik_23 + u_melik_39 + u_melik_47
                    + u_melik_49 + u_melik_63 + u_melik_64 - x_v68_R >= 0
 rainbow_v68_okul: u_okul_3 + u_okul_4 + u_okul_6 + u_okul_8 + u_okul_10
                   + u_okul_11 + u_okul_12 + u_okul_19 + u_okul_23 + u_okul_24
                   + u_okul_25 + u_okul_27 + u_okul_32 + u_okul_34 + u_okul_39
                   + u_okul_41 + u_okul_44 + u_okul_45 + u_okul_49 + u_okul_52
                   + u_okul_53 + u_okul_54 + u_okul_59 + u_okul_61 + u_okul_64
                   + u_okul_66 + u_okul_68 + u_okul_70 - x_v68_R >= 0
 rainbow_v69_melik: u_melik_6 + u_melik_11 + u_melik_13 + u_melik_23
                    + u_melik_33 + u_melik_47 + u_melik_49 + u_melik_63
                    + u_melik_64 + u_melik_68 - x_v69_R >= 0
 rainbow_v69_okul: u_okul_3 + u_okul_4 + u_okul_6 + u_okul_8 + u_okul_11
                   + u_okul_12 + u_okul_19 + u_okul_23 + u_okul_25 + u_okul_32
                   + u_okul_34 + u_okul_41 + u_okul_44 + u_okul_45 + u_okul_49
                   + u_okul_54 + u_okul_59 + u_okul_61 + u_okul_64 + u_okul_66
                   + u_okul_68 + u_okul_70 - x_v69_R >= 0
 rainbow_v70_melik: u_melik_6 + u_melik_23 + u_melik_33 + u_melik_49
                    + u_melik_64 + u_melik_68 - x_v70_R >= 0
 rainbow_v70_okul: u_okul_3 + u_okul_4 + u_okul_6 + u_okul_8 + u_okul_11
                   + u_okul_19 + u_okul_23 + u_okul_32 + u_okul_44 + u_okul_45
                   + u_okul_49 + u_okul_59 + u_okul_61 + u_okul_66 + u_okul_68
                   + u_okul_70 - x_v70_R >= 0
 rainbow_v71_melik: u_melik_5 + u_melik_32 + u_melik_36 + u_melik_54
                    + u_melik_58 + u_melik_73 - x_v71_R >= 0
 rainbow_v71_okul: u_okul_7 + u_okul_13 + u_okul_17 + u_okul_20 + u_okul_28
                   + u_okul_31 + u_okul_37 + u_okul_38 + u_okul_42 + u_okul_48
                   + u_okul_50 + u_okul_51 + u_okul_62 + u_okul_63 - x_v71_R
                    >= 0
 rainbow_v72_melik: u_melik_1 + u_melik_2 + u_melik_5 + u_melik_14 + u_melik_32
                    + u_melik_36 + u_melik_54 + u_melik_58 + u_melik_71
                    + u_melik_73 - x_v72_R >= 0
 rainbow_v72_okul: u_okul_0 + u_okul_7 + u_okul_10 + u_okul_13 + u_okul_17
                   + u_okul_20 + u_okul_24 + u_okul_28 + u_okul_31 + u_okul_37
                   + u_okul_38 + u_okul_39 + u_okul_42 + u_okul_43 + u_okul_48
                   + u_okul_50 + u_okul_51 + u_okul_62 + u_okul_63 - x_v72_R
                    >= 0
 rainbow_v73_melik: u_melik_1 + u_melik_2 + u_melik_5 + u_melik_14 + u_melik_15
                    + u_melik_32 + u_melik_36 + u_melik_41 + u_melik_52
                    + u_melik_62 + u_melik_71 + u_melik_73 - x_v73_R >= 0
 rainbow_v73_okul: u_okul_0 + u_okul_7 + u_okul_10 + u_okul_12 + u_okul_13
                   + u_okul_17 + u_okul_20 + u_okul_24 + u_okul_25 + u_okul_27
                   + u_okul_28 + u_okul_31 + u_okul_37 + u_okul_38 + u_okul_39
                   + u_okul_42 + u_okul_43 + u_okul_48 + u_okul_50 + u_okul_51
                   + u_okul_52 + u_okul_54 + u_okul_62 + u_okul_63 - x_v73_R
                    >= 0
 rainbow_v74_melik: u_melik_1 + u_melik_2 + u_melik_5 + u_melik_15 + u_melik_21
                    + u_melik_25 + u_melik_28 + u_melik_35 + u_melik_41
                    + u_melik_52 + u_melik_62 + u_melik_73 - x_v74_R >= 0
 rainbow_v74_okul: u_okul_0 + u_okul_7 + u_okul_10 + u_okul_12 + u_okul_13
                   + u_okul_17 + u_okul_20 + u_okul_24 + u_okul_25 + u_okul_27
                   + u_okul_28 + u_okul_31 + u_okul_32 + u_okul_37 + u_okul_38
                   + u_okul_39 + u_okul_41 + u_okul_42 + u_okul_43 + u_okul_45
                   + u_okul_48 + u_okul_49 + u_okul_50 + u_okul_51 + u_okul_52
                   + u_okul_54 + u_okul_62 + u_okul_63 + u_okul_64 - x_v74_R
                    >= 0
 rainbow_v75_melik: u_melik_1 + u_melik_2 + u_melik_4 + u_melik_8 + u_melik_21
                    + u_melik_25 + u_melik_28 + u_melik_35 + u_melik_39
                    + u_melik_52 + u_melik_62 + u_melik_78 - x_v75_R >= 0
 rainbow_v75_okul: u_okul_0 + u_okul_7 + u_okul_8 + u_okul_10 + u_okul_12
                   + u_okul_13 + u_okul_17 + u_okul_20 + u_okul_24 + u_okul_25
                   + u_okul_27 + u_okul_28 + u_okul_31 + u_okul_32 + u_okul_37
                   + u_okul_38 + u_okul_39 + u_okul_41 + u_okul_42 + u_okul_43
                   + u_okul_44 + u_okul_45 + u_okul_48 + u_okul_49 + u_okul_50
                   + u_okul_51 + u_okul_52 + u_okul_54 + u_okul_59 + u_okul_63
                   + u_okul_64 + u_okul_68 + u_okul_70 - x_v75_R >= 0
 rainbow_v76_melik: u_melik_3 + u_melik_4 + u_melik_8 + u_melik_9 + u_melik_10
                    + u_melik_11 + u_melik_21 + u_melik_35 + u_melik_39
                    + u_melik_52 + u_melik_62 + u_melik_78 - x_v76_R >= 0
 rainbow_v76_okul: u_okul_0 + u_okul_4 + u_okul_6 + u_okul_7 + u_okul_8
                   + u_okul_10 + u_okul_11 + u_okul_12 + u_okul_13 + u_okul_23
                   + u_okul_24 + u_okul_25 + u_okul_27 + u_okul_31 + u_okul_32
                   + u_okul_37 + u_okul_38 + u_okul_39 + u_okul_41 + u_okul_42
                   + u_okul_43 + u_okul_44 + u_okul_45 + u_okul_48 + u_okul_49
                   + u_okul_50 + u_okul_52 + u_okul_54 + u_okul_59 + u_okul_61
                   + u_okul_64 + u_okul_68 + u_okul_70 - x_v76_R >= 0
 rainbow_v77_melik: u_melik_3 + u_melik_4 + u_melik_6 + u_melik_9 + u_melik_10
                    + u_melik_11 + u_melik_13 + u_melik_21 + u_melik_35
                    + u_melik_39 + u_melik_63 + u_melik_75 - x_v77_R >= 0
 rainbow_v77_okul: u_okul_3 + u_okul_4 + u_okul_6 + u_okul_8 + u_okul_10
                   + u_okul_11 + u_okul_12 + u_okul_13 + u_okul_23 + u_okul_24
                   + u_okul_25 + u_okul_27 + u_okul_32 + u_okul_37 + u_okul_39
                   + u_okul_41 + u_okul_42 + u_okul_43 + u_okul_44 + u_okul_45
                   + u_okul_49 + u_okul_50 + u_okul_52 + u_okul_54 + u_okul_59
                   + u_okul_61 + u_okul_64 + u_okul_68 + u_okul_70 - x_v77_R
                    >= 0
 rainbow_v78_melik: u_melik_4 + u_melik_6 + u_melik_9 + u_melik_11 + u_melik_13
                    + u_melik_16 + u_melik_23 + u_melik_33 + u_melik_39
                    + u_melik_49 + u_melik_63 + u_melik_75 - x_v78_R >= 0
 rainbow_v78_okul: u_okul_3 + u_okul_4 + u_okul_6 + u_okul_8 + u_okul_10
                   + u_okul_11 + u_okul_12 + u_okul_23 + u_okul_24 + u_okul_25
                   + u_okul_27 + u_okul_32 + u_okul_39 + u_okul_41 + u_okul_43
                   + u_okul_44 + u_okul_45 + u_okul_49 + u_okul_54 + u_okul_59
                   + u_okul_61 + u_okul_64 + u_okul_68 + u_okul_70 - x_v78_R
                    >= 0
 rainbow_v79_melik: u_melik_6 + u_melik_9 + u_melik_11 + u_melik_13 + u_melik_16
                    + u_melik_17 + u_melik_23 + u_melik_33 + u_melik_49
                    + u_melik_64 - x_v79_R >= 0
 rainbow_v79_okul: u_okul_3 + u_okul_4 + u_okul_6 + u_okul_8 + u_okul_11
                   + u_okul_12 + u_okul_23 + u_okul_25 + u_okul_27 + u_okul_32
                   + u_okul_44 + u_okul_45 + u_okul_49 + u_okul_54 + u_okul_59
                   + u_okul_61 + u_okul_64 + u_okul_68 + u_okul_70 - x_v79_R
                    >= 0
 rainbow_v80_melik: u_melik_6 + u_melik_13 + u_melik_17 + u_melik_23
                    + u_melik_33 + u_melik_64 - x_v80_R >= 0
 rainbow_v80_okul: u_okul_3 + u_okul_4 + u_okul_6 + u_okul_8 + u_okul_11
                   + u_okul_23 + u_okul_32 + u_okul_44 + u_okul_45 + u_okul_49
                   + u_okul_59 + u_okul_61 + u_okul_64 + u_okul_70 - x_v80_R
                    >= 0
 rainbow_v81_melik: u_melik_5 + u_melik_14 + u_melik_32 + u_melik_36
                    + u_melik_58 - x_v81_R >= 0
 rainbow_v81_okul: u_okul_7 + u_okul_13 + u_okul_17 + u_okul_20 + u_okul_28
                   + u_okul_31 + u_okul_38 + u_okul_42 + u_okul_48 + u_okul_50
                   + u_okul_63 - x_v81_R >= 0
 rainbow_v82_melik: u_melik_2 + u_melik_5 + u_melik_14 + u_melik_15 + u_melik_32
                    + u_melik_36 + u_melik_58 + u_melik_73 - x_v82_R >= 0
 rainbow_v82_okul: u_okul_7 + u_okul_10 + u_okul_13 + u_okul_17 + u_okul_20
                   + u_okul_24 + u_okul_28 + u_okul_31 + u_okul_37 + u_okul_38
                   + u_okul_42 + u_okul_43 + u_okul_48 + u_okul_50 + u_okul_63
                   - x_v82_R >= 0
 rainbow_v83_melik: u_melik_1 + u_melik_2 + u_melik_5 + u_melik_14 + u_melik_15
                    + u_melik_25 + u_melik_32 + u_melik_58 + u_melik_62
                    + u_melik_73 - x_v83_R >= 0
 rainbow_v83_okul: u_okul_7 + u_okul_10 + u_okul_12 + u_okul_13 + u_okul_17
                   + u_okul_20 + u_okul_24 + u_okul_27 + u_okul_28 + u_okul_31
                   + u_okul_37 + u_okul_38 + u_okul_39 + u_okul_42 + u_okul_43
                   + u_okul_48 + u_okul_50 + u_okul_54 + u_okul_63 - x_v83_R
                    >= 0
 rainbow_v84_melik: u_melik_1 + u_melik_2 + u_melik_5 + u_melik_8 + u_melik_14
                    + u_melik_15 + u_melik_25 + u_melik_35 + u_melik_52
                    + u_melik_62 - x_v84_R >= 0
 rainbow_v84_okul: u_okul_7 + u_okul_10 + u_okul_12 + u_okul_13 + u_okul_17
                   + u_okul_20 + u_okul_24 + u_okul_25 + u_okul_27 + u_okul_28
                   + u_okul_31 + u_okul_32 + u_okul_37 + u_okul_38 + u_okul_39
                   + u_okul_42 + u_okul_43 + u_okul_45 + u_okul_48 + u_okul_50
                   + u_okul_54 + u_okul_63 + u_okul_64 - x_v84_R >= 0
 rainbow_v85_melik: u_melik_2 + u_melik_3 + u_melik_4 + u_melik_8 + u_melik_15
                    + u_melik_21 + u_melik_25 + u_melik_35 + u_melik_52
                    + u_melik_62 - x_v85_R >= 0
 rainbow_v85_okul: u_okul_7 + u_okul_8 + u_okul_10 + u_okul_12 + u_okul_13
                   + u_okul_17 + u_okul_20 + u_okul_24 + u_okul_25 + u_okul_27
                   + u_okul_31 + u_okul_32 + u_okul_37 + u_okul_38 + u_okul_39
                   + u_okul_42 + u_okul_43 + u_okul_44 + u_okul_45 + u_okul_48
                   + u_okul_49 + u_okul_50 + u_okul_54 + u_okul_63 + u_okul_64
                   + u_okul_70 - x_v85_R >= 0
 rainbow_v86_melik: u_melik_3 + u_melik_4 + u_melik_8 + u_melik_9 + u_melik_21
                    + u_melik_25 + u_melik_35 + u_melik_39 + u_melik_62
                    + u_melik_75 - x_v86_R >= 0
 rainbow_v86_okul: u_okul_4 + u_okul_8 + u_okul_10 + u_okul_12 + u_okul_13
                   + u_okul_23 + u_okul_24 + u_okul_25 + u_okul_27 + u_okul_31
                   + u_okul_32 + u_okul_37 + u_okul_38 + u_okul_39 + u_okul_42
                   + u_okul_43 + u_okul_44 + u_okul_45 + u_okul_48 + u_okul_49
                   + u_okul_50 + u_okul_54 + u_okul_59 + u_okul_61 + u_okul_64
                   + u_okul_70 - x_v86_R >= 0
 rainbow_v87_melik: u_melik_3 + u_melik_4 + u_melik_8 + u_melik_9 + u_melik_11
                    + u_melik_13 + u_melik_16 + u_melik_35 + u_melik_39
                    + u_melik_75 - x_v87_R >= 0
 rainbow_v87_okul: u_okul_4 + u_okul_8 + u_okul_10 + u_okul_11 + u_okul_12
                   + u_okul_13 + u_okul_23 + u_okul_24 + u_okul_25 + u_okul_27
                   + u_okul_32 + u_okul_39 + u_okul_42 + u_okul_43 + u_okul_44
                   + u_okul_45 + u_okul_49 + u_okul_50 + u_okul_54 + u_okul_59
                   + u_okul_61 + u_okul_64 + u_okul_70 - x_v87_R >= 0
 rainbow_v88_melik: u_melik_3 + u_melik_4 + u_melik_6 + u_melik_9 + u_melik_11
                    + u_melik_13 + u_melik_16 + u_melik_17 + u_melik_33
                    + u_melik_75 - x_v88_R >= 0
 rainbow_v88_okul: u_okul_4 + u_okul_8 + u_okul_10 + u_okul_11 + u_okul_12
                   + u_okul_23 + u_okul_24 + u_okul_25 + u_okul_27 + u_okul_32
                   + u_okul_43 + u_okul_44 + u_okul_45 + u_okul_49 + u_okul_54
                   + u_okul_59 + u_okul_61 + u_okul_64 + u_okul_70 - x_v88_R
                    >= 0
 rainbow_v89_melik: u_melik_6 + u_melik_9 + u_melik_13 + u_melik_16 + u_melik_17
                    + u_melik_23 + u_melik_33 + u_melik_75 - x_v89_R >= 0
 rainbow_v89_okul: u_okul_4 + u_okul_8 + u_okul_11 + u_okul_12 + u_okul_23
                   + u_okul_27 + u_okul_32 + u_okul_44 + u_okul_45 + u_okul_49
                   + u_okul_54 + u_okul_59 + u_okul_61 + u_okul_64 + u_okul_70
                   - x_v89_R >= 0
 rainbow_v90_melik: u_melik_13 + u_melik_16 + u_melik_17 + u_melik_23
                    + u_melik_33 - x_v90_R >= 0
 rainbow_v90_okul: u_okul_4 + u_okul_8 + u_okul_11 + u_okul_23 + u_okul_32
                   + u_okul_44 + u_okul_45 + u_okul_59 + u_okul_61 + u_okul_64
                   + u_okul_70 - x_v90_R >= 0
 rainbow_v91_melik: u_melik_14 + u_melik_32 + u_melik_58 - x_v91_R >= 0
 rainbow_v91_okul: u_okul_13 + u_okul_17 + u_okul_20 + u_okul_31 + u_okul_38
                   + u_okul_48 + u_okul_50 + u_okul_63 - x_v91_R >= 0
 rainbow_v92_melik: u_melik_5 + u_melik_14 + u_melik_15 + u_melik_32
                    + u_melik_58 - x_v92_R >= 0
 rainbow_v92_okul: u_okul_13 + u_okul_17 + u_okul_20 + u_okul_24 + u_okul_31
                   + u_okul_38 + u_okul_42 + u_okul_43 + u_okul_48 + u_okul_50
                   + u_okul_63 - x_v92_R >= 0
 rainbow_v93_melik: u_melik_2 + u_melik_5 + u_melik_14 + u_melik_15 + u_melik_25
                    + u_melik_58 - x_v93_R >= 0
 rainbow_v93_okul: u_okul_10 + u_okul_13 + u_okul_17 + u_okul_20 + u_okul_24
                   + u_okul_27 + u_okul_31 + u_okul_38 + u_okul_42 + u_okul_43
                   + u_okul_48 + u_okul_50 + u_okul_54 + u_okul_63 - x_v93_R
                    >= 0
 rainbow_v94_melik: u_melik_2 + u_melik_8 + u_melik_14 + u_melik_15 + u_melik_25
                    + u_melik_62 - x_v94_R >= 0
 rainbow_v94_okul: u_okul_10 + u_okul_12 + u_okul_13 + u_okul_17 + u_okul_20
                   + u_okul_24 + u_okul_27 + u_okul_31 + u_okul_38 + u_okul_42
                   + u_okul_43 + u_okul_45 + u_okul_48 + u_okul_50 + u_okul_54
                   + u_okul_63 + u_okul_64 - x_v94_R >= 0
 rainbow_v95_melik: u_melik_3 + u_melik_8 + u_melik_15 + u_melik_25 + u_melik_35
                    + u_melik_62 - x_v95_R >= 0
 rainbow_v95_okul: u_okul_8 + u_okul_10 + u_okul_12 + u_okul_13 + u_okul_17
                   + u_okul_20 + u_okul_24 + u_okul_27 + u_okul_31 + u_okul_32
                   + u_okul_38 + u_okul_42 + u_okul_43 + u_okul_44 + u_okul_45
                   + u_okul_48 + u_okul_50 + u_okul_54 + u_okul_64 - x_v95_R
                    >= 0
 rainbow_v96_melik: u_melik_3 + u_melik_4 + u_melik_8 + u_melik_25 + u_melik_35
                    + u_melik_75 - x_v96_R >= 0
 rainbow_v96_okul: u_okul_4 + u_okul_8 + u_okul_10 + u_okul_12 + u_okul_13
                   + u_okul_23 + u_okul_24 + u_okul_27 + u_okul_32 + u_okul_38
                   + u_okul_42 + u_okul_43 + u_okul_44 + u_okul_45 + u_okul_48
                   + u_okul_50 + u_okul_54 + u_okul_64 + u_okul_70 - x_v96_R
                    >= 0
 rainbow_v97_melik: u_melik_3 + u_melik_4 + u_melik_8 + u_melik_9 + u_melik_16
                    + u_melik_75 - x_v97_R >= 0
 rainbow_v97_okul: u_okul_4 + u_okul_8 + u_okul_10 + u_okul_12 + u_okul_13
                   + u_okul_23 + u_okul_24 + u_okul_27 + u_okul_32 + u_okul_43
                   + u_okul_44 + u_okul_45 + u_okul_50 + u_okul_54 + u_okul_61
                   + u_okul_64 + u_okul_70 - x_v97_R >= 0
 rainbow_v98_melik: u_melik_3 + u_melik_9 + u_melik_13 + u_melik_16 + u_melik_17
                    + u_melik_75 - x_v98_R >= 0
 rainbow_v98_okul: u_okul_4 + u_okul_8 + u_okul_12 + u_okul_23 + u_okul_24
                   + u_okul_27 + u_okul_32 + u_okul_43 + u_okul_44 + u_okul_45
                   + u_okul_54 + u_okul_61 + u_okul_64 + u_okul_70 - x_v98_R
                    >= 0
 rainbow_v99_melik: u_melik_13 + u_melik_16 + u_melik_17 + u_melik_33
                    + u_melik_75 - x_v99_R >= 0
 rainbow_v99_okul: u_okul_4 + u_okul_8 + u_okul_23 + u_okul_27 + u_okul_32
                   + u_okul_44 + u_okul_45 + u_okul_54 + u_okul_61 + u_okul_64
                   + u_okul_70 - x_v99_R >= 0
 rainbow_v100_melik: u_melik_16 + u_melik_17 + u_melik_33 - x_v100_R >= 0
 rainbow_v100_okul: u_okul_4 + u_okul_8 + u_okul_23 + u_okul_44 + u_okul_45
                    + u_okul_61 + u_okul_64 + u_okul_70 - x_v100_R >= 0
 group_size_melik,_0: u_melik_0 - x_v3_melik <= 0
 group_size_melik,_0#301: u_melik_0 - x_v4_melik <= 0
 group_size_melik,_0#302: u_melik_0 - x_v14_melik <= 0
 group_size_melik,_0#303: u_melik_0 - x_v13_melik <= 0
 group_size_melik,_1: u_melik_1 - x_v63_melik <= 0
 group_size_melik,_1#305: u_melik_1 - x_v74_melik <= 0
 group_size_melik,_1#306: u_melik_1 - x_v64_melik <= 0
 group_size_melik,_1#307: u_melik_1 - x_v73_melik <= 0
 group_size_melik,_2: u_melik_2 - x_v84_melik <= 0
 group_size_melik,_2#309: u_melik_2 - x_v83_melik <= 0
 group_size_melik,_2#310: u_melik_2 - x_v74_melik <= 0
 group_size_melik,_2#311: u_melik_2 - x_v73_melik <= 0
 group_size_melik,_3: u_melik_3 - x_v87_melik <= 0
 group_size_melik,_3#313: u_melik_3 - x_v97_melik <= 0
 group_size_melik,_3#314: u_melik_3 - x_v96_melik <= 0
 group_size_melik,_3#315: u_melik_3 - x_v86_melik <= 0
 group_size_melik,_4: u_melik_4 - x_v76_melik <= 0
 group_size_melik,_4#317: u_melik_4 - x_v87_melik <= 0
 group_size_melik,_4#318: u_melik_4 - x_v77_melik <= 0
 group_size_melik,_4#319: u_melik_4 - x_v86_melik <= 0
 group_size_melik,_5: u_melik_5 - x_v72_melik <= 0
 group_size_melik,_5#321: u_melik_5 - x_v82_melik <= 0
 group_size_melik,_5#322: u_melik_5 - x_v83_melik <= 0
 group_size_melik,_5#323: u_melik_5 - x_v73_melik <= 0
 group_size_melik,_6: u_melik_6 - x_v79_melik <= 0
 group_size_melik,_6#325: u_melik_6 - x_v69_melik <= 0
 group_size_melik,_6#326: u_melik_6 - x_v68_melik <= 0
 group_size_melik,_6#327: u_melik_6 - x_v78_melik <= 0
 group_size_melik,_7: u_melik_7 - x_v47_melik <= 0
 group_size_melik,_7#329: u_melik_7 - x_v48_melik <= 0
 group_size_melik,_7#330: u_melik_7 - x_v58_melik <= 0
 group_size_melik,_7#331: u_melik_7 - x_v57_melik <= 0
 group_size_melik,_8: u_melik_8 - x_v96_melik <= 0
 group_size_melik,_8#333: u_melik_8 - x_v85_melik <= 0
 group_size_melik,_8#334: u_melik_8 - x_v86_melik <= 0
 group_size_melik,_8#335: u_melik_8 - x_v95_melik <= 0
 group_size_melik,_9: u_melik_9 - x_v87_melik <= 0
 group_size_melik,_9#337: u_melik_9 - x_v88_melik <= 0
 group_size_melik,_9#338: u_melik_9 - x_v77_melik <= 0
 group_size_melik,_9#339: u_melik_9 - x_v78_melik <= 0
 group_size_melik,_10: u_melik_10 - x_v67_melik <= 0
 group_size_melik,_10#341: u_melik_10 - x_v66_melik <= 0
 group_size_melik,_10#342: u_melik_10 - x_v56_melik <= 0
 group_size_melik,_10#343: u_melik_10 - x_v57_melik <= 0
 group_size_melik,_11: u_melik_11 - x_v67_melik <= 0
 group_size_melik,_11#345: u_melik_11 - x_v68_melik <= 0
 group_size_melik,_11#346: u_melik_11 - x_v77_melik <= 0
 group_size_melik,_11#347: u_melik_11 - x_v78_melik <= 0
 group_size_melik,_12: u_melik_12 - x_v53_melik <= 0
 group_size_melik,_12#349: u_melik_12 - x_v54_melik <= 0
 group_size_melik,_12#350: u_melik_12 - x_v44_melik <= 0
 group_size_melik,_12#351: u_melik_12 - x_v43_melik <= 0
 group_size_melik,_13: u_melik_13 - x_v88_melik <= 0
 group_size_melik,_13#353: u_melik_13 - x_v79_melik <= 0
 group_size_melik,_13#354: u_melik_13 - x_v78_melik <= 0
 group_size_melik,_13#355: u_melik_13 - x_v89_melik <= 0
 group_size_melik,_14: u_melik_14 - x_v92_melik <= 0
 group_size_melik,_14#357: u_melik_14 - x_v82_melik <= 0
 group_size_melik,_14#358: u_melik_14 - x_v93_melik <= 0
 group_size_melik,_14#359: u_melik_14 - x_v83_melik <= 0
 group_size_melik,_15: u_melik_15 - x_v84_melik <= 0
 group_size_melik,_15#361: u_melik_15 - x_v93_melik <= 0
 group_size_melik,_15#362: u_melik_15 - x_v94_melik <= 0
 group_size_melik,_15#363: u_melik_15 - x_v83_melik <= 0
 group_size_melik,_16: u_melik_16 - x_v88_melik <= 0
 group_size_melik,_16#365: u_melik_16 - x_v98_melik <= 0
 group_size_melik,_16#366: u_melik_16 - x_v99_melik <= 0
 group_size_melik,_16#367: u_melik_16 - x_v89_melik <= 0
 group_size_melik,_17: u_melik_17 - x_v90_melik <= 0
 group_size_melik,_17#369: u_melik_17 - x_v100_melik <= 0
 group_size_melik,_17#370: u_melik_17 - x_v99_melik <= 0
 group_size_melik,_17#371: u_melik_17 - x_v89_melik <= 0
 group_size_melik,_18: u_melik_18 - x_v25_melik <= 0
 group_size_melik,_18#373: u_melik_18 - x_v15_melik <= 0
 group_size_melik,_18#374: u_melik_18 - x_v14_melik <= 0
 group_size_melik,_18#375: u_melik_18 - x_v24_melik <= 0
 group_size_melik,_19: u_melik_19 - x_v17_melik <= 0
 group_size_melik,_19#377: u_melik_19 - x_v7_melik <= 0
 group_size_melik,_19#378: u_melik_19 - x_v8_melik <= 0
 group_size_melik,_19#379: u_melik_19 - x_v18_melik <= 0
 group_size_melik,_20: u_melik_20 - x_v5_melik <= 0
 group_size_melik,_20#381: u_melik_20 - x_v4_melik <= 0
 group_size_melik,_20#382: u_melik_20 - x_v15_melik <= 0
 group_size_melik,_20#383: u_melik_20 - x_v14_melik <= 0
 group_size_melik,_21: u_melik_21 - x_v76_melik <= 0
 group_size_melik,_21#385: u_melik_21 - x_v66_melik <= 0
 group_size_melik,_21#386: u_melik_21 - x_v75_melik <= 0
 group_size_melik,_21#387: u_melik_21 - x_v65_melik <= 0
 group_size_melik,_22: u_melik_22 - x_v32_melik <= 0
 group_size_melik,_22#389: u_melik_22 - x_v42_melik <= 0
 group_size_melik,_22#390: u_melik_22 - x_v41_melik <= 0
 group_size_melik,_22#391: u_melik_22 - x_v31_melik <= 0
 group_size_melik,_23: u_melik_23 - x_v79_melik <= 0
 group_size_melik,_23#393: u_melik_23 - x_v69_melik <= 0
 group_size_melik,_23#394: u_melik_23 - x_v80_melik <= 0
 group_size_melik,_23#395: u_melik_23 - x_v70_melik <= 0
 group_size_melik,_24: u_melik_24 - x_v47_melik <= 0
 group_size_melik,_24#397: u_melik_24 - x_v46_melik <= 0
 group_size_melik,_24#398: u_melik_24 - x_v36_melik <= 0
 group_size_melik,_24#399: u_melik_24 - x_v37_melik <= 0
 group_size_melik,_25: u_melik_25 - x_v95_melik <= 0
 group_size_melik,_25#401: u_melik_25 - x_v84_melik <= 0
 group_size_melik,_25#402: u_melik_25 - x_v85_melik <= 0
 group_size_melik,_25#403: u_melik_25 - x_v94_melik <= 0
 group_size_melik,_26: u_melik_26 - x_v48_melik <= 0
 group_size_melik,_26#405: u_melik_26 - x_v38_melik <= 0
 group_size_melik,_26#406: u_melik_26 - x_v39_melik <= 0
 group_size_melik,_26#407: u_melik_26 - x_v49_melik <= 0
 group_size_melik,_27: u_melik_27 - x_v32_melik <= 0
 group_size_melik,_27#409: u_melik_27 - x_v33_melik <= 0
 group_size_melik,_27#410: u_melik_27 - x_v42_melik <= 0
 group_size_melik,_27#411: u_melik_27 - x_v43_melik <= 0
 group_size_melik,_28: u_melik_28 - x_v55_melik <= 0
 group_size_melik,_28#413: u_melik_28 - x_v54_melik <= 0
 group_size_melik,_28#414: u_melik_28 - x_v64_melik <= 0
 group_size_melik,_28#415: u_melik_28 - x_v65_melik <= 0
 group_size_melik,_29: u_melik_29 - x_v28_melik <= 0
 group_size_melik,_29#417: u_melik_29 - x_v18_melik <= 0
 group_size_melik,_29#418: u_melik_29 - x_v29_melik <= 0
 group_size_melik,_29#419: u_melik_29 - x_v19_melik <= 0
 group_size_melik,_30: u_melik_30 - x_v17_melik <= 0
 group_size_melik,_30#421: u_melik_30 - x_v27_melik <= 0
 group_size_melik,_30#422: u_melik_30 - x_v26_melik <= 0
 group_size_melik,_30#423: u_melik_30 - x_v16_melik <= 0
 group_size_melik,_31: u_melik_31 - x_v40_melik <= 0
 group_size_melik,_31#425: u_melik_31 - x_v39_melik <= 0
 group_size_melik,_31#426: u_melik_31 - x_v30_melik <= 0
 group_size_melik,_31#427: u_melik_31 - x_v29_melik <= 0
 group_size_melik,_32: u_melik_32 - x_v72_melik <= 0
 group_size_melik,_32#429: u_melik_32 - x_v81_melik <= 0
 group_size_melik,_32#430: u_melik_32 - x_v82_melik <= 0
 group_size_melik,_32#431: u_melik_32 - x_v71_melik <= 0
 group_size_melik,_33: u_melik_33 - x_v90_melik <= 0
 group_size_melik,_33#433: u_melik_33 - x_v79_melik <= 0
 group_size_melik,_33#434: u_melik_33 - x_v80_melik <= 0
 group_size_melik,_33#435: u_melik_33 - x_v89_melik <= 0
 group_size_melik,_34: u_melik_34 - x_v47_melik <= 0
 group_size_melik,_34#437: u_melik_34 - x_v38_melik <= 0
 group_size_melik,_34#438: u_melik_34 - x_v48_melik <= 0
 group_size_melik,_34#439: u_melik_34 - x_v37_melik <= 0
 group_size_melik,_35: u_melik_35 - x_v76_melik <= 0
 group_size_melik,_35#441: u_melik_35 - x_v85_melik <= 0
 group_size_melik,_35#442: u_melik_35 - x_v75_melik <= 0
 group_size_melik,_35#443: u_melik_35 - x_v86_melik <= 0
 group_size_melik,_36: u_melik_36 - x_v72_melik <= 0
 group_size_melik,_36#445: u_melik_36 - x_v62_melik <= 0
 group_size_melik,_36#446: u_melik_36 - x_v61_melik <= 0
 group_size_melik,_36#447: u_melik_36 - x_v71_melik <= 0
 group_size_melik,_37: u_melik_37 - x_v47_melik <= 0
 group_size_melik,_37#449: u_melik_37 - x_v56_melik <= 0
 group_size_melik,_37#450: u_melik_37 - x_v46_melik <= 0
 group_size_melik,_37#451: u_melik_37 - x_v57_melik <= 0
 group_size_melik,_38: u_melik_38 - x_v2_melik <= 0
 group_size_melik,_38#453: u_melik_38 - x_v1_melik <= 0
 group_size_melik,_38#454: u_melik_38 - x_v12_melik <= 0
 group_size_melik,_38#455: u_melik_38 - x_v11_melik <= 0
 group_size_melik,_39: u_melik_39 - x_v67_melik <= 0
 group_size_melik,_39#457: u_melik_39 - x_v66_melik <= 0
 group_size_melik,_39#458: u_melik_39 - x_v76_melik <= 0
 group_size_melik,_39#459: u_melik_39 - x_v77_melik <= 0
 group_size_melik,_40: u_melik_40 - x_v28_melik <= 0
 group_size_melik,_40#461: u_melik_40 - x_v38_melik <= 0
 group_size_melik,_40#462: u_melik_40 - x_v29_melik <= 0
 group_size_melik,_40#463: u_melik_40 - x_v39_melik <= 0
 group_size_melik,_41: u_melik_41 - x_v53_melik <= 0
 group_size_melik,_41#465: u_melik_41 - x_v64_melik <= 0
 group_size_melik,_41#466: u_melik_41 - x_v63_melik <= 0
 group_size_melik,_41#467: u_melik_41 - x_v54_melik <= 0
 group_size_melik,_42: u_melik_42 - x_v25_melik <= 0
 group_size_melik,_42#469: u_melik_42 - x_v15_melik <= 0
 group_size_melik,_42#470: u_melik_42 - x_v26_melik <= 0
 group_size_melik,_42#471: u_melik_42 - x_v16_melik <= 0
 group_size_melik,_43: u_melik_43 - x_v3_melik <= 0
 group_size_melik,_43#473: u_melik_43 - x_v2_melik <= 0
 group_size_melik,_43#474: u_melik_43 - x_v12_melik <= 0
 group_size_melik,_43#475: u_melik_43 - x_v13_melik <= 0
 group_size_melik,_44: u_melik_44 - x_v53_melik <= 0
 group_size_melik,_44#477: u_melik_44 - x_v52_melik <= 0
 group_size_melik,_44#478: u_melik_44 - x_v42_melik <= 0
 group_size_melik,_44#479: u_melik_44 - x_v43_melik <= 0
 group_size_melik,_45: u_melik_45 - x_v27_melik <= 0
 group_size_melik,_45#481: u_melik_45 - x_v36_melik <= 0
 group_size_melik,_45#482: u_melik_45 - x_v26_melik <= 0
 group_size_melik,_45#483: u_melik_45 - x_v37_melik <= 0
 group_size_melik,_46: u_melik_46 - x_v28_melik <= 0
 group_size_melik,_46#485: u_melik_46 - x_v17_melik <= 0
 group_size_melik,_46#486: u_melik_46 - x_v27_melik <= 0
 group_size_melik,_46#487: u_melik_46 - x_v18_melik <= 0
 group_size_melik,_47: u_melik_47 - x_v48_melik <= 0
 group_size_melik,_47#489: u_melik_47 - x_v59_melik <= 0
 group_size_melik,_47#490: u_melik_47 - x_v49_melik <= 0
 group_size_melik,_47#491: u_melik_47 - x_v58_melik <= 0
 group_size_melik,_48: u_melik_48 - x_v5_melik <= 0
 group_size_melik,_48#493: u_melik_48 - x_v15_melik <= 0
 group_size_melik,_48#494: u_melik_48 - x_v6_melik <= 0
 group_size_melik,_48#495: u_melik_48 - x_v16_melik <= 0
 group_size_melik,_49: u_melik_49 - x_v69_melik <= 0
 group_size_melik,_49#497: u_melik_49 - x_v68_melik <= 0
 group_size_melik,_49#498: u_melik_49 - x_v59_melik <= 0
 group_size_melik,_49#499: u_melik_49 - x_v58_melik <= 0
 group_size_melik,_50: u_melik_50 - x_v40_melik <= 0
 group_size_melik,_50#501: u_melik_50 - x_v39_melik <= 0
 group_size_melik,_50#502: u_melik_50 - x_v50_melik <= 0
 group_size_melik,_50#503: u_melik_50 - x_v49_melik <= 0
 group_size_melik,_51: u_melik_51 - x_v44_melik <= 0
 group_size_melik,_51#505: u_melik_51 - x_v45_melik <= 0
 group_size_melik,_51#506: u_melik_51 - x_v34_melik <= 0
 group_size_melik,_51#507: u_melik_51 - x_v35_melik <= 0
 group_size_melik,_52: u_melik_52 - x_v75_melik <= 0
 group_size_melik,_52#509: u_melik_52 - x_v74_melik <= 0
 group_size_melik,_52#510: u_melik_52 - x_v65_melik <= 0
 group_size_melik,_52#511: u_melik_52 - x_v64_melik <= 0
 group_size_melik,_53: u_melik_53 - x_v25_melik <= 0
 group_size_melik,_53#513: u_melik_53 - x_v34_melik <= 0
 group_size_melik,_53#514: u_melik_53 - x_v24_melik <= 0
 group_size_melik,_53#515: u_melik_53 - x_v35_melik <= 0
 group_size_melik,_54: u_melik_54 - x_v51_melik <= 0
 group_size_melik,_54#517: u_melik_54 - x_v52_melik <= 0
 group_size_melik,_54#518: u_melik_54 - x_v62_melik <= 0
 group_size_melik,_54#519: u_melik_54 - x_v61_melik <= 0
 group_size_melik,_55: u_melik_55 - x_v23_melik <= 0
 group_size_melik,_55#521: u_melik_55 - x_v33_melik <= 0
 group_size_melik,_55#522: u_melik_55 - x_v32_melik <= 0
 group_size_melik,_55#523: u_melik_55 - x_v22_melik <= 0
 group_size_melik,_56: u_melik_56 - x_v33_melik <= 0
 group_size_melik,_56#525: u_melik_56 - x_v34_melik <= 0
 group_size_melik,_56#526: u_melik_56 - x_v44_melik <= 0
 group_size_melik,_56#527: u_melik_56 - x_v43_melik <= 0
 group_size_melik,_57: u_melik_57 - x_v23_melik <= 0
 group_size_melik,_57#529: u_melik_57 - x_v14_melik <= 0
 group_size_melik,_57#530: u_melik_57 - x_v13_melik <= 0
 group_size_melik,_57#531: u_melik_57 - x_v24_melik <= 0
 group_size_melik,_58: u_melik_58 - x_v92_melik <= 0
 group_size_melik,_58#533: u_melik_58 - x_v81_melik <= 0
 group_size_melik,_58#534: u_melik_58 - x_v82_melik <= 0
 group_size_melik,_58#535: u_melik_58 - x_v91_melik <= 0
 group_size_melik,_59: u_melik_59 - x_v45_melik <= 0
 group_size_melik,_59#537: u_melik_59 - x_v46_melik <= 0
 group_size_melik,_59#538: u_melik_59 - x_v36_melik <= 0
 group_size_melik,_59#539: u_melik_59 - x_v35_melik <= 0
 group_size_melik,_60: u_melik_60 - x_v20_melik <= 0
 group_size_melik,_60#541: u_melik_60 - x_v30_melik <= 0
 group_size_melik,_60#542: u_melik_60 - x_v29_melik <= 0
 group_size_melik,_60#543: u_melik_60 - x_v19_melik <= 0
 group_size_melik,_61: u_melik_61 - x_v32_melik <= 0
 group_size_melik,_61#545: u_melik_61 - x_v22_melik <= 0
 group_size_melik,_61#546: u_melik_61 - x_v21_melik <= 0
 group_size_melik,_61#547: u_melik_61 - x_v31_melik <= 0
 group_size_melik,_62: u_melik_62 - x_v75_melik <= 0
 group_size_melik,_62#549: u_melik_62 - x_v74_melik <= 0
 group_size_melik,_62#550: u_melik_62 - x_v84_melik <= 0
 group_size_melik,_62#551: u_melik_62 - x_v85_melik <= 0
 group_size_melik,_63: u_melik_63 - x_v67_melik <= 0
 group_size_melik,_63#553: u_melik_63 - x_v68_melik <= 0
 group_size_melik,_63#554: u_melik_63 - x_v58_melik <= 0
 group_size_melik,_63#555: u_melik_63 - x_v57_melik <= 0
 group_size_melik,_64: u_melik_64 - x_v60_melik <= 0
 group_size_melik,_64#557: u_melik_64 - x_v69_melik <= 0
 group_size_melik,_64#558: u_melik_64 - x_v59_melik <= 0
 group_size_melik,_64#559: u_melik_64 - x_v70_melik <= 0
 group_size_melik,_65: u_melik_65 - x_v23_melik <= 0
 group_size_melik,_65#561: u_melik_65 - x_v22_melik <= 0
 group_size_melik,_65#562: u_melik_65 - x_v12_melik <= 0
 group_size_melik,_65#563: u_melik_65 - x_v13_melik <= 0
 group_size_melik,_66: u_melik_66 - x_v28_melik <= 0
 group_size_melik,_66#565: u_melik_66 - x_v27_melik <= 0
 group_size_melik,_66#566: u_melik_66 - x_v38_melik <= 0
 group_size_melik,_66#567: u_melik_66 - x_v37_melik <= 0
 group_size_melik,_67: u_melik_67 - x_v17_melik <= 0
 group_size_melik,_67#569: u_melik_67 - x_v6_melik <= 0
 group_size_melik,_67#570: u_melik_67 - x_v7_melik <= 0
 group_size_melik,_67#571: u_melik_67 - x_v16_melik <= 0
 group_size_melik,_68: u_melik_68 - x_v60_melik <= 0
 group_size_melik,_68#573: u_melik_68 - x_v50_melik <= 0
 group_size_melik,_68#574: u_melik_68 - x_v59_melik <= 0
 group_size_melik,_68#575: u_melik_68 - x_v49_melik <= 0
 group_size_melik,_69: u_melik_69 - x_v45_melik <= 0
 group_size_melik,_69#577: u_melik_69 - x_v55_melik <= 0
 group_size_melik,_69#578: u_melik_69 - x_v46_melik <= 0
 group_size_melik,_69#579: u_melik_69 - x_v56_melik <= 0
 group_size_melik,_70: u_melik_70 - x_v22_melik <= 0
 group_size_melik,_70#581: u_melik_70 - x_v21_melik <= 0
 group_size_melik,_70#582: u_melik_70 - x_v12_melik <= 0
 group_size_melik,_70#583: u_melik_70 - x_v11_melik <= 0
 group_size_melik,_71: u_melik_71 - x_v53_melik <= 0
 group_size_melik,_71#585: u_melik_71 - x_v52_melik <= 0
 group_size_melik,_71#586: u_melik_71 - x_v62_melik <= 0
 group_size_melik,_71#587: u_melik_71 - x_v63_melik <= 0
 group_size_melik,_72: u_melik_72 - x_v23_melik <= 0
 group_size_melik,_72#589: u_melik_72 - x_v33_melik <= 0
 group_size_melik,_72#590: u_melik_72 - x_v34_melik <= 0
 group_size_melik,_72#591: u_melik_72 - x_v24_melik <= 0
 group_size_melik,_73: u_melik_73 - x_v63_melik <= 0
 group_size_melik,_73#593: u_melik_73 - x_v72_melik <= 0
 group_size_melik,_73#594: u_melik_73 - x_v62_melik <= 0
 group_size_melik,_73#595: u_melik_73 - x_v73_melik <= 0
 group_size_melik,_74: u_melik_74 - x_v25_melik <= 0
 group_size_melik,_74#597: u_melik_74 - x_v36_melik <= 0
 group_size_melik,_74#598: u_melik_74 - x_v35_melik <= 0
 group_size_melik,_74#599: u_melik_74 - x_v26_melik <= 0
 group_size_melik,_75: u_melik_75 - x_v87_melik <= 0
 group_size_melik,_75#601: u_melik_75 - x_v88_melik <= 0
 group_size_melik,_75#602: u_melik_75 - x_v97_melik <= 0
 group_size_melik,_75#603: u_melik_75 - x_v98_melik <= 0
 group_size_melik,_76: u_melik_76 - x_v18_melik <= 0
 group_size_melik,_76#605: u_melik_76 - x_v8_melik <= 0
 group_size_melik,_76#606: u_melik_76 - x_v9_melik <= 0
 group_size_melik,_76#607: u_melik_76 - x_v19_melik <= 0
 group_size_melik,_77: u_melik_77 - x_v20_melik <= 0
 group_size_melik,_77#609: u_melik_77 - x_v9_melik <= 0
 group_size_melik,_77#610: u_melik_77 - x_v19_melik <= 0
 group_size_melik,_77#611: u_melik_77 - x_v10_melik <= 0
 group_size_melik,_78: u_melik_78 - x_v55_melik <= 0
 group_size_melik,_78#613: u_melik_78 - x_v66_melik <= 0
 group_size_melik,_78#614: u_melik_78 - x_v56_melik <= 0
 group_size_melik,_78#615: u_melik_78 - x_v65_melik <= 0
 group_size_melik,_79: u_melik_79 - x_v51_melik <= 0
 group_size_melik,_79#617: u_melik_79 - x_v52_melik <= 0
 group_size_melik,_79#618: u_melik_79 - x_v42_melik <= 0
 group_size_melik,_79#619: u_melik_79 - x_v41_melik <= 0
 group_size_melik,_80: u_melik_80 - x_v45_melik <= 0
 group_size_melik,_80#621: u_melik_80 - x_v55_melik <= 0
 group_size_melik,_80#622: u_melik_80 - x_v54_melik <= 0
 group_size_melik,_80#623: u_melik_80 - x_v44_melik <= 0
 group_size_okul,_0: u_okul_0 - x_v55_okul <= 0
 group_size_okul,_0#625: u_okul_0 - x_v53_okul <= 0
 group_size_okul,_0#626: u_okul_0 - x_v45_okul <= 0
 group_size_okul,_0#627: u_okul_0 - x_v44_okul <= 0
 group_size_okul,_0#628: u_okul_0 - x_v54_okul <= 0
 group_size_okul,_0#629: u_okul_0 - x_v43_okul <= 0
 group_size_okul,_1: u_okul_1 - x_v20_okul <= 0
 group_size_okul,_1#631: u_okul_1 - x_v19_okul <= 0
 group_size_okul,_1#632: u_okul_1 - x_v28_okul <= 0
 group_size_okul,_1#633: u_okul_1 - x_v18_okul <= 0
 group_size_okul,_1#634: u_okul_1 - x_v30_okul <= 0
 group_size_okul,_1#635: u_okul_1 - x_v29_okul <= 0
 group_size_okul,_2: u_okul_2 - x_v36_okul <= 0
 group_size_okul,_2#637: u_okul_2 - x_v35_okul <= 0
 group_size_okul,_2#638: u_okul_2 - x_v45_okul <= 0
 group_size_okul,_2#639: u_okul_2 - x_v34_okul <= 0
 group_size_okul,_2#640: u_okul_2 - x_v46_okul <= 0
 group_size_okul,_2#641: u_okul_2 - x_v44_okul <= 0
 group_size_okul,_3: u_okul_3 - x_v48_okul <= 0
 group_size_okul,_3#643: u_okul_3 - x_v50_okul <= 0
 group_size_okul,_3#644: u_okul_3 - x_v60_okul <= 0
 group_size_okul,_3#645: u_okul_3 - x_v49_okul <= 0
 group_size_okul,_3#646: u_okul_3 - x_v58_okul <= 0
 group_size_okul,_3#647: u_okul_3 - x_v59_okul <= 0
 group_size_okul,_4: u_okul_4 - x_v79_okul <= 0
 group_size_okul,_4#649: u_okul_4 - x_v78_okul <= 0
 group_size_okul,_4#650: u_okul_4 - x_v90_okul <= 0
 group_size_okul,_4#651: u_okul_4 - x_v88_okul <= 0
 group_size_okul,_4#652: u_okul_4 - x_v80_okul <= 0
 group_size_okul,_4#653: u_okul_4 - x_v89_okul <= 0
 group_size_okul,_5: u_okul_5 - x_v25_okul <= 0
 group_size_okul,_5#655: u_okul_5 - x_v24_okul <= 0
 group_size_okul,_5#656: u_okul_5 - x_v14_okul <= 0
 group_size_okul,_5#657: u_okul_5 - x_v13_okul <= 0
 group_size_okul,_5#658: u_okul_5 - x_v23_okul <= 0
 group_size_okul,_5#659: u_okul_5 - x_v15_okul <= 0
 group_size_okul,_6: u_okul_6 - x_v47_okul <= 0
 group_size_okul,_6#661: u_okul_6 - x_v48_okul <= 0
 group_size_okul,_6#662: u_okul_6 - x_v49_okul <= 0
 group_size_okul,_6#663: u_okul_6 - x_v58_okul <= 0
 group_size_okul,_6#664: u_okul_6 - x_v57_okul <= 0
 group_size_okul,_6#665: u_okul_6 - x_v59_okul <= 0
 group_size_okul,_7: u_okul_7 - x_v63_okul <= 0
 group_size_okul,_7#667: u_okul_7 - x_v53_okul <= 0
 group_size_okul,_7#668: u_okul_7 - x_v52_okul <= 0
 group_size_okul,_7#669: u_okul_7 - x_v62_okul <= 0
 group_size_okul,_7#670: u_okul_7 - x_v64_okul <= 0
 group_size_okul,_7#671: u_okul_7 - x_v54_okul <= 0
 group_size_okul,_8: u_okul_8 - x_v87_okul <= 0
 group_size_okul,_8#673: u_okul_8 - x_v79_okul <= 0
 group_size_okul,_8#674: u_okul_8 - x_v78_okul <= 0
 group_size_okul,_8#675: u_okul_8 - x_v88_okul <= 0
 group_size_okul,_8#676: u_okul_8 - x_v77_okul <= 0
 group_size_okul,_8#677: u_okul_8 - x_v89_okul <= 0
 group_size_okul,_9: u_okul_9 - x_v19_okul <= 0
 group_size_okul,_9#679: u_okul_9 - x_v17_okul <= 0
 group_size_okul,_9#680: u_okul_9 - x_v9_okul <= 0
 group_size_okul,_9#681: u_okul_9 - x_v7_okul <= 0
 group_size_okul,_9#682: u_okul_9 - x_v8_okul <= 0
 group_size_okul,_9#683: u_okul_9 - x_v18_okul <= 0
 group_size_okul,_10: u_okul_10 - x_v75_okul <= 0
 group_size_okul,_10#685: u_okul_10 - x_v76_okul <= 0
 group_size_okul,_10#686: u_okul_10 - x_v66_okul <= 0
 group_size_okul,_10#687: u_okul_10 - x_v64_okul <= 0
 group_size_okul,_10#688: u_okul_10 - x_v65_okul <= 0
 group_size_okul,_10#689: u_okul_10 - x_v74_okul <= 0
 group_size_okul,_11: u_okul_11 - x_v60_okul <= 0
 group_size_okul,_11#691: u_okul_11 - x_v58_okul <= 0
 group_size_okul,_11#692: u_okul_11 - x_v70_okul <= 0
 group_size_okul,_11#693: u_okul_11 - x_v69_okul <= 0
 group_size_okul,_11#694: u_okul_11 - x_v68_okul <= 0
 group_size_okul,_11#695: u_okul_11 - x_v59_okul <= 0
 group_size_okul,_12: u_okul_12 - x_v75_okul <= 0
 group_size_okul,_12#697: u_okul_12 - x_v67_okul <= 0
 group_size_okul,_12#698: u_okul_12 - x_v76_okul <= 0
 group_size_okul,_12#699: u_okul_12 - x_v66_okul <= 0
 group_size_okul,_12#700: u_okul_12 - x_v77_okul <= 0
 group_size_okul,_12#701: u_okul_12 - x_v65_okul <= 0
 group_size_okul,_13: u_okul_13 - x_v83_okul <= 0
 group_size_okul,_13#703: u_okul_13 - x_v85_okul <= 0
 group_size_okul,_13#704: u_okul_13 - x_v75_okul <= 0
 group_size_okul,_13#705: u_okul_13 - x_v84_okul <= 0
 group_size_okul,_13#706: u_okul_13 - x_v74_okul <= 0
 group_size_okul,_13#707: u_okul_13 - x_v73_okul <= 0
 group_size_okul,_14: u_okul_14 - x_v15_okul <= 0
 group_size_okul,_14#709: u_okul_14 - x_v16_okul <= 0
 group_size_okul,_14#710: u_okul_14 - x_v5_okul <= 0
 group_size_okul,_14#711: u_okul_14 - x_v17_okul <= 0
 group_size_okul,_14#712: u_okul_14 - x_v6_okul <= 0
 group_size_okul,_14#713: u_okul_14 - x_v7_okul <= 0
 group_size_okul,_15: u_okul_15 - x_v3_okul <= 0
 group_size_okul,_15#715: u_okul_15 - x_v12_okul <= 0
 group_size_okul,_15#716: u_okul_15 - x_v11_okul <= 0
 group_size_okul,_15#717: u_okul_15 - x_v13_okul <= 0
 group_size_okul,_15#718: u_okul_15 - x_v2_okul <= 0
 group_size_okul,_15#719: u_okul_15 - x_v1_okul <= 0
 group_size_okul,_16: u_okul_16 - x_v32_okul <= 0
 group_size_okul,_16#721: u_okul_16 - x_v33_okul <= 0
 group_size_okul,_16#722: u_okul_16 - x_v42_okul <= 0
 group_size_okul,_16#723: u_okul_16 - x_v41_okul <= 0
 group_size_okul,_16#724: u_okul_16 - x_v31_okul <= 0
 group_size_okul,_16#725: u_okul_16 - x_v43_okul <= 0
 group_size_okul,_17: u_okul_17 - x_v92_okul <= 0
 group_size_okul,_17#727: u_okul_17 - x_v81_okul <= 0
 group_size_okul,_17#728: u_okul_17 - x_v82_okul <= 0
 group_size_okul,_17#729: u_okul_17 - x_v83_okul <= 0
 group_size_okul,_17#730: u_okul_17 - x_v93_okul <= 0
 group_size_okul,_17#731: u_okul_17 - x_v91_okul <= 0
 group_size_okul,_18: u_okul_18 - x_v15_okul <= 0
 group_size_okul,_18#733: u_okul_18 - x_v14_okul <= 0
 group_size_okul,_18#734: u_okul_18 - x_v16_okul <= 0
 group_size_okul,_18#735: u_okul_18 - x_v5_okul <= 0
 group_size_okul,_18#736: u_okul_18 - x_v4_okul <= 0
 group_size_okul,_18#737: u_okul_18 - x_v6_okul <= 0
 group_size_okul,_19: u_okul_19 - x_v47_okul <= 0
 group_size_okul,_19#739: u_okul_19 - x_v38_okul <= 0
 group_size_okul,_19#740: u_okul_19 - x_v48_okul <= 0
 group_size_okul,_19#741: u_okul_19 - x_v49_okul <= 0
 group_size_okul,_19#742: u_okul_19 - x_v37_okul <= 0
 group_size_okul,_19#743: u_okul_19 - x_v39_okul <= 0
 group_size_okul,_20: u_okul_20 - x_v72_okul <= 0
 group_size_okul,_20#745: u_okul_20 - x_v73_okul <= 0
 group_size_okul,_20#746: u_okul_20 - x_v81_okul <= 0
 group_size_okul,_20#747: u_okul_20 - x_v82_okul <= 0
 group_size_okul,_20#748: u_okul_20 - x_v83_okul <= 0
 group_size_okul,_20#749: u_okul_20 - x_v71_okul <= 0
 group_size_okul,_21: u_okul_21 - x_v25_okul <= 0
 group_size_okul,_21#751: u_okul_21 - x_v24_okul <= 0
 group_size_okul,_21#752: u_okul_21 - x_v14_okul <= 0
 group_size_okul,_21#753: u_okul_21 - x_v26_okul <= 0
 group_size_okul,_21#754: u_okul_21 - x_v16_okul <= 0
 group_size_okul,_21#755: u_okul_21 - x_v15_okul <= 0
 group_size_okul,_22: u_okul_22 - x_v27_okul <= 0
 group_size_okul,_22#757: u_okul_22 - x_v19_okul <= 0
 group_size_okul,_22#758: u_okul_22 - x_v28_okul <= 0
 group_size_okul,_22#759: u_okul_22 - x_v17_okul <= 0
 group_size_okul,_22#760: u_okul_22 - x_v29_okul <= 0
 group_size_okul,_22#761: u_okul_22 - x_v18_okul <= 0
 group_size_okul,_23: u_okul_23 - x_v98_okul <= 0
 group_size_okul,_23#763: u_okul_23 - x_v90_okul <= 0
 group_size_okul,_23#764: u_okul_23 - x_v88_okul <= 0
 group_size_okul,_23#765: u_okul_23 - x_v100_okul <= 0
 group_size_okul,_23#766: u_okul_23 - x_v99_okul <= 0
 group_size_okul,_23#767: u_okul_23 - x_v89_okul <= 0
 group_size_okul,_24: u_okul_24 - x_v75_okul <= 0
 group_size_okul,_24#769: u_okul_24 - x_v85_okul <= 0
 group_size_okul,_24#770: u_okul_24 - x_v86_okul <= 0
 group_size_okul,_24#771: u_okul_24 - x_v76_okul <= 0
 group_size_okul,_24#772: u_okul_24 - x_v84_okul <= 0
 group_size_okul,_24#773: u_okul_24 - x_v74_okul <= 0
 group_size_okul,_25: u_okul_25 - x_v55_okul <= 0
 group_size_okul,_25#775: u_okul_25 - x_v56_okul <= 0
 group_size_okul,_25#776: u_okul_25 - x_v57_okul <= 0
 group_size_okul,_25#777: u_okul_25 - x_v67_okul <= 0
 group_size_okul,_25#778: u_okul_25 - x_v66_okul <= 0
 group_size_okul,_25#779: u_okul_25 - x_v65_okul <= 0
 group_size_okul,_26: u_okul_26 - x_v21_okul <= 0
 group_size_okul,_26#781: u_okul_26 - x_v12_okul <= 0
 group_size_okul,_26#782: u_okul_26 - x_v11_okul <= 0
 group_size_okul,_26#783: u_okul_26 - x_v13_okul <= 0
 group_size_okul,_26#784: u_okul_26 - x_v23_okul <= 0
 group_size_okul,_26#785: u_okul_26 - x_v22_okul <= 0
 group_size_okul,_27: u_okul_27 - x_v87_okul <= 0
 group_size_okul,_27#787: u_okul_27 - x_v96_okul <= 0
 group_size_okul,_27#788: u_okul_27 - x_v85_okul <= 0
 group_size_okul,_27#789: u_okul_27 - x_v86_okul <= 0
 group_size_okul,_27#790: u_okul_27 - x_v95_okul <= 0
 group_size_okul,_27#791: u_okul_27 - x_v97_okul <= 0
 group_size_okul,_28: u_okul_28 - x_v63_okul <= 0
 group_size_okul,_28#793: u_okul_28 - x_v61_okul <= 0
 group_size_okul,_28#794: u_okul_28 - x_v51_okul <= 0
 group_size_okul,_28#795: u_okul_28 - x_v53_okul <= 0
 group_size_okul,_28#796: u_okul_28 - x_v52_okul <= 0
 group_size_okul,_28#797: u_okul_28 - x_v62_okul <= 0
 group_size_okul,_29: u_okul_29 - x_v3_okul <= 0
 group_size_okul,_29#799: u_okul_29 - x_v12_okul <= 0
 group_size_okul,_29#800: u_okul_29 - x_v13_okul <= 0
 group_size_okul,_29#801: u_okul_29 - x_v14_okul <= 0
 group_size_okul,_29#802: u_okul_29 - x_v4_okul <= 0
 group_size_okul,_29#803: u_okul_29 - x_v2_okul <= 0
 group_size_okul,_30: u_okul_30 - x_v27_okul <= 0
 group_size_okul,_30#805: u_okul_30 - x_v26_okul <= 0
 group_size_okul,_30#806: u_okul_30 - x_v16_okul <= 0
 group_size_okul,_30#807: u_okul_30 - x_v28_okul <= 0
 group_size_okul,_30#808: u_okul_30 - x_v17_okul <= 0
 group_size_okul,_30#809: u_okul_30 - x_v18_okul <= 0
 group_size_okul,_31: u_okul_31 - x_v63_okul <= 0
 group_size_okul,_31#811: u_okul_31 - x_v72_okul <= 0
 group_size_okul,_31#812: u_okul_31 - x_v62_okul <= 0
 group_size_okul,_31#813: u_okul_31 - x_v64_okul <= 0
 group_size_okul,_31#814: u_okul_31 - x_v74_okul <= 0
 group_size_okul,_31#815: u_okul_31 - x_v73_okul <= 0
 group_size_okul,_32: u_okul_32 - x_v67_okul <= 0
 group_size_okul,_32#817: u_okul_32 - x_v78_okul <= 0
 group_size_okul,_32#818: u_okul_32 - x_v76_okul <= 0
 group_size_okul,_32#819: u_okul_32 - x_v66_okul <= 0
 group_size_okul,_32#820: u_okul_32 - x_v68_okul <= 0
 group_size_okul,_32#821: u_okul_32 - x_v77_okul <= 0
 group_size_okul,_33: u_okul_33 - x_v25_okul <= 0
 group_size_okul,_33#823: u_okul_33 - x_v27_okul <= 0
 group_size_okul,_33#824: u_okul_33 - x_v15_okul <= 0
 group_size_okul,_33#825: u_okul_33 - x_v26_okul <= 0
 group_size_okul,_33#826: u_okul_33 - x_v16_okul <= 0
 group_size_okul,_33#827: u_okul_33 - x_v17_okul <= 0
 group_size_okul,_34: u_okul_34 - x_v47_okul <= 0
 group_size_okul,_34#829: u_okul_34 - x_v38_okul <= 0
 group_size_okul,_34#830: u_okul_34 - x_v48_okul <= 0
 group_size_okul,_34#831: u_okul_34 - x_v36_okul <= 0
 group_size_okul,_34#832: u_okul_34 - x_v37_okul <= 0
 group_size_okul,_34#833: u_okul_34 - x_v46_okul <= 0
 group_size_okul,_35: u_okul_35 - x_v24_okul <= 0
 group_size_okul,_35#835: u_okul_35 - x_v12_okul <= 0
 group_size_okul,_35#836: u_okul_35 - x_v13_okul <= 0
 group_size_okul,_35#837: u_okul_35 - x_v14_okul <= 0
 group_size_okul,_35#838: u_okul_35 - x_v23_okul <= 0
 group_size_okul,_35#839: u_okul_35 - x_v22_okul <= 0
 group_size_okul,_36: u_okul_36 - x_v32_okul <= 0
 group_size_okul,_36#841: u_okul_36 - x_v33_okul <= 0
 group_size_okul,_36#842: u_okul_36 - x_v21_okul <= 0
 group_size_okul,_36#843: u_okul_36 - x_v23_okul <= 0
 group_size_okul,_36#844: u_okul_36 - x_v22_okul <= 0
 group_size_okul,_36#845: u_okul_36 - x_v31_okul <= 0
 group_size_okul,_37: u_okul_37 - x_v63_okul <= 0
 group_size_okul,_37#847: u_okul_37 - x_v55_okul <= 0
 group_size_okul,_37#848: u_okul_37 - x_v54_okul <= 0
 group_size_okul,_37#849: u_okul_37 - x_v53_okul <= 0
 group_size_okul,_37#850: u_okul_37 - x_v64_okul <= 0
 group_size_okul,_37#851: u_okul_37 - x_v65_okul <= 0
 group_size_okul,_38: u_okul_38 - x_v72_okul <= 0
 group_size_okul,_38#853: u_okul_38 - x_v82_okul <= 0
 group_size_okul,_38#854: u_okul_38 - x_v83_okul <= 0
 group_size_okul,_38#855: u_okul_38 - x_v84_okul <= 0
 group_size_okul,_38#856: u_okul_38 - x_v74_okul <= 0
 group_size_okul,_38#857: u_okul_38 - x_v73_okul <= 0
 group_size_okul,_39: u_okul_39 - x_v55_okul <= 0
 group_size_okul,_39#859: u_okul_39 - x_v56_okul <= 0
 group_size_okul,_39#860: u_okul_39 - x_v54_okul <= 0
 group_size_okul,_39#861: u_okul_39 - x_v66_okul <= 0
 group_size_okul,_39#862: u_okul_39 - x_v64_okul <= 0
 group_size_okul,_39#863: u_okul_39 - x_v65_okul <= 0
 group_size_okul,_40: u_okul_40 - x_v38_okul <= 0
 group_size_okul,_40#865: u_okul_40 - x_v27_okul <= 0
 group_size_okul,_40#866: u_okul_40 - x_v37_okul <= 0
 group_size_okul,_40#867: u_okul_40 - x_v28_okul <= 0
 group_size_okul,_40#868: u_okul_40 - x_v39_okul <= 0
 group_size_okul,_40#869: u_okul_40 - x_v29_okul <= 0
 group_size_okul,_41: u_okul_41 - x_v47_okul <= 0
 group_size_okul,_41#871: u_okul_41 - x_v55_okul <= 0
 group_size_okul,_41#872: u_okul_41 - x_v56_okul <= 0
 group_size_okul,_41#873: u_okul_41 - x_v57_okul <= 0
 group_size_okul,_41#874: u_okul_41 - x_v45_okul <= 0
 group_size_okul,_41#875: u_okul_41 - x_v46_okul <= 0
 group_size_okul,_42: u_okul_42 - x_v63_okul <= 0
 group_size_okul,_42#877: u_okul_42 - x_v74_okul <= 0
 group_size_okul,_42#878: u_okul_42 - x_v75_okul <= 0
 group_size_okul,_42#879: u_okul_42 - x_v64_okul <= 0
 group_size_okul,_42#880: u_okul_42 - x_v65_okul <= 0
 group_size_okul,_42#881: u_okul_42 - x_v73_okul <= 0
 group_size_okul,_43: u_okul_43 - x_v96_okul <= 0
 group_size_okul,_43#883: u_okul_43 - x_v85_okul <= 0
 group_size_okul,_43#884: u_okul_43 - x_v86_okul <= 0
 group_size_okul,_43#885: u_okul_43 - x_v94_okul <= 0
 group_size_okul,_43#886: u_okul_43 - x_v95_okul <= 0
 group_size_okul,_43#887: u_okul_43 - x_v84_okul <= 0
 group_size_okul,_44: u_okul_44 - x_v87_okul <= 0
 group_size_okul,_44#889: u_okul_44 - x_v98_okul <= 0
 group_size_okul,_44#890: u_okul_44 - x_v88_okul <= 0
 group_size_okul,_44#891: u_okul_44 - x_v97_okul <= 0
 group_size_okul,_44#892: u_okul_44 - x_v99_okul <= 0
 group_size_okul,_44#893: u_okul_44 - x_v89_okul <= 0
 group_size_okul,_45: u_okul_45 - x_v87_okul <= 0
 group_size_okul,_45#895: u_okul_45 - x_v88_okul <= 0
 group_size_okul,_45#896: u_okul_45 - x_v86_okul <= 0
 group_size_okul,_45#897: u_okul_45 - x_v78_okul <= 0
 group_size_okul,_45#898: u_okul_45 - x_v76_okul <= 0
 group_size_okul,_45#899: u_okul_45 - x_v77_okul <= 0
 group_size_okul,_46: u_okul_46 - x_v32_okul <= 0
 group_size_okul,_46#901: u_okul_46 - x_v24_okul <= 0
 group_size_okul,_46#902: u_okul_46 - x_v33_okul <= 0
 group_size_okul,_46#903: u_okul_46 - x_v22_okul <= 0
 group_size_okul,_46#904: u_okul_46 - x_v23_okul <= 0
 group_size_okul,_46#905: u_okul_46 - x_v34_okul <= 0
 group_size_okul,_47: u_okul_47 - x_v16_okul <= 0
 group_size_okul,_47#907: u_okul_47 - x_v17_okul <= 0
 group_size_okul,_47#908: u_okul_47 - x_v6_okul <= 0
 group_size_okul,_47#909: u_okul_47 - x_v7_okul <= 0
 group_size_okul,_47#910: u_okul_47 - x_v8_okul <= 0
 group_size_okul,_47#911: u_okul_47 - x_v18_okul <= 0
 group_size_okul,_48: u_okul_48 - x_v92_okul <= 0
 group_size_okul,_48#913: u_okul_48 - x_v82_okul <= 0
 group_size_okul,_48#914: u_okul_48 - x_v94_okul <= 0
 group_size_okul,_48#915: u_okul_48 - x_v84_okul <= 0
 group_size_okul,_48#916: u_okul_48 - x_v93_okul <= 0
 group_size_okul,_48#917: u_okul_48 - x_v83_okul <= 0
 group_size_okul,_49: u_okul_49 - x_v56_okul <= 0
 group_size_okul,_49#919: u_okul_49 - x_v58_okul <= 0
 group_size_okul,_49#920: u_okul_49 - x_v57_okul <= 0
 group_size_okul,_49#921: u_okul_49 - x_v67_okul <= 0
 group_size_okul,_49#922: u_okul_49 - x_v66_okul <= 0
 group_size_okul,_49#923: u_okul_49 - x_v68_okul <= 0
 group_size_okul,_50: u_okul_50 - x_v85_okul <= 0
 group_size_okul,_50#925: u_okul_50 - x_v94_okul <= 0
 group_size_okul,_50#926: u_okul_50 - x_v95_okul <= 0
 group_size_okul,_50#927: u_okul_50 - x_v84_okul <= 0
 group_size_okul,_50#928: u_okul_50 - x_v93_okul <= 0
 group_size_okul,_50#929: u_okul_50 - x_v83_okul <= 0
 group_size_okul,_51: u_okul_51 - x_v42_okul <= 0
 group_size_okul,_51#931: u_okul_51 - x_v54_okul <= 0
 group_size_okul,_51#932: u_okul_51 - x_v53_okul <= 0
 group_size_okul,_51#933: u_okul_51 - x_v52_okul <= 0
 group_size_okul,_51#934: u_okul_51 - x_v44_okul <= 0
 group_size_okul,_51#935: u_okul_51 - x_v43_okul <= 0
 group_size_okul,_52: u_okul_52 - x_v55_okul <= 0
 group_size_okul,_52#937: u_okul_52 - x_v56_okul <= 0
 group_size_okul,_52#938: u_okul_52 - x_v44_okul <= 0
 group_size_okul,_52#939: u_okul_52 - x_v45_okul <= 0
 group_size_okul,_52#940: u_okul_52 - x_v46_okul <= 0
 group_size_okul,_52#941: u_okul_52 - x_v54_okul <= 0
 group_size_okul,_53: u_okul_53 - x_v47_okul <= 0
 group_size_okul,_53#943: u_okul_53 - x_v36_okul <= 0
 group_size_okul,_53#944: u_okul_53 - x_v35_okul <= 0
 group_size_okul,_53#945: u_okul_53 - x_v37_okul <= 0
 group_size_okul,_53#946: u_okul_53 - x_v45_okul <= 0
 group_size_okul,_53#947: u_okul_53 - x_v46_okul <= 0
 group_size_okul,_54: u_okul_54 - x_v87_okul <= 0
 group_size_okul,_54#949: u_okul_54 - x_v75_okul <= 0
 group_size_okul,_54#950: u_okul_54 - x_v85_okul <= 0
 group_size_okul,_54#951: u_okul_54 - x_v86_okul <= 0
 group_size_okul,_54#952: u_okul_54 - x_v76_okul <= 0
 group_size_okul,_54#953: u_okul_54 - x_v77_okul <= 0
 group_size_okul,_55: u_okul_55 - x_v3_okul <= 0
 group_size_okul,_55#955: u_okul_55 - x_v15_okul <= 0
 group_size_okul,_55#956: u_okul_55 - x_v13_okul <= 0
 group_size_okul,_55#957: u_okul_55 - x_v14_okul <= 0
 group_size_okul,_55#958: u_okul_55 - x_v5_okul <= 0
 group_size_okul,_55#959: u_okul_55 - x_v4_okul <= 0
 group_size_okul,_56: u_okul_56 - x_v25_okul <= 0
 group_size_okul,_56#961: u_okul_56 - x_v24_okul <= 0
 group_size_okul,_56#962: u_okul_56 - x_v33_okul <= 0
 group_size_okul,_56#963: u_okul_56 - x_v35_okul <= 0
 group_size_okul,_56#964: u_okul_56 - x_v23_okul <= 0
 group_size_okul,_56#965: u_okul_56 - x_v34_okul <= 0
 group_size_okul,_57: u_okul_57 - x_v32_okul <= 0
 group_size_okul,_57#967: u_okul_57 - x_v33_okul <= 0
 group_size_okul,_57#968: u_okul_57 - x_v42_okul <= 0
 group_size_okul,_57#969: u_okul_57 - x_v34_okul <= 0
 group_size_okul,_57#970: u_okul_57 - x_v44_okul <= 0
 group_size_okul,_57#971: u_okul_57 - x_v43_okul <= 0
 group_size_okul,_58: u_okul_58 - x_v25_okul <= 0
 group_size_okul,_58#973: u_okul_58 - x_v27_okul <= 0
 group_size_okul,_58#974: u_okul_58 - x_v37_okul <= 0
 group_size_okul,_58#975: u_okul_58 - x_v26_okul <= 0
 group_size_okul,_58#976: u_okul_58 - x_v35_okul <= 0
 group_size_okul,_58#977: u_okul_58 - x_v36_okul <= 0
 group_size_okul,_59: u_okul_59 - x_v58_okul <= 0
 group_size_okul,_59#979: u_okul_59 - x_v57_okul <= 0
 group_size_okul,_59#980: u_okul_59 - x_v67_okul <= 0
 group_size_okul,_59#981: u_okul_59 - x_v69_okul <= 0
 group_size_okul,_59#982: u_okul_59 - x_v68_okul <= 0
 group_size_okul,_59#983: u_okul_59 - x_v59_okul <= 0
 group_size_okul,_60: u_okul_60 - x_v20_okul <= 0
 group_size_okul,_60#985: u_okul_60 - x_v19_okul <= 0
 group_size_okul,_60#986: u_okul_60 - x_v18_okul <= 0
 group_size_okul,_60#987: u_okul_60 - x_v9_okul <= 0
 group_size_okul,_60#988: u_okul_60 - x_v8_okul <= 0
 group_size_okul,_60#989: u_okul_60 - x_v10_okul <= 0
 group_size_okul,_61: u_okul_61 - x_v79_okul <= 0
 group_size_okul,_61#991: u_okul_61 - x_v70_okul <= 0
 group_size_okul,_61#992: u_okul_61 - x_v69_okul <= 0
 group_size_okul,_61#993: u_okul_61 - x_v78_okul <= 0
 group_size_okul,_61#994: u_okul_61 - x_v80_okul <= 0
 group_size_okul,_61#995: u_okul_61 - x_v68_okul <= 0
 group_size_okul,_62: u_okul_62 - x_v42_okul <= 0
 group_size_okul,_62#997: u_okul_62 - x_v41_okul <= 0
 group_size_okul,_62#998: u_okul_62 - x_v51_okul <= 0
 group_size_okul,_62#999: u_okul_62 - x_v53_okul <= 0
 group_size_okul,_62#1000: u_okul_62 - x_v52_okul <= 0
 group_size_okul,_62#1001: u_okul_62 - x_v43_okul <= 0
 group_size_okul,_63: u_okul_63 - x_v63_okul <= 0
 group_size_okul,_63#1003: u_okul_63 - x_v72_okul <= 0
 group_size_okul,_63#1004: u_okul_63 - x_v61_okul <= 0
 group_size_okul,_63#1005: u_okul_63 - x_v71_okul <= 0
 group_size_okul,_63#1006: u_okul_63 - x_v62_okul <= 0
 group_size_okul,_63#1007: u_okul_63 - x_v73_okul <= 0
 group_size_okul,_64: u_okul_64 - x_v87_okul <= 0
 group_size_okul,_64#1009: u_okul_64 - x_v96_okul <= 0
 group_size_okul,_64#1010: u_okul_64 - x_v98_okul <= 0
 group_size_okul,_64#1011: u_okul_64 - x_v86_okul <= 0
 group_size_okul,_64#1012: u_okul_64 - x_v88_okul <= 0
 group_size_okul,_64#1013: u_okul_64 - x_v97_okul <= 0
 group_size_okul,_65: u_okul_65 - x_v38_okul <= 0
 group_size_okul,_65#1015: u_okul_65 - x_v40_okul <= 0
 group_size_okul,_65#1016: u_okul_65 - x_v28_okul <= 0
 group_size_okul,_65#1017: u_okul_65 - x_v39_okul <= 0
 group_size_okul,_65#1018: u_okul_65 - x_v30_okul <= 0
 group_size_okul,_65#1019: u_okul_65 - x_v29_okul <= 0
 group_size_okul,_66: u_okul_66 - x_v48_okul <= 0
 group_size_okul,_66#1021: u_okul_66 - x_v38_okul <= 0
 group_size_okul,_66#1022: u_okul_66 - x_v40_okul <= 0
 group_size_okul,_66#1023: u_okul_66 - x_v50_okul <= 0
 group_size_okul,_66#1024: u_okul_66 - x_v49_okul <= 0
 group_size_okul,_66#1025: u_okul_66 - x_v39_okul <= 0
 group_size_okul,_67: u_okul_67 - x_v25_okul <= 0
 group_size_okul,_67#1027: u_okul_67 - x_v24_okul <= 0
 group_size_okul,_67#1028: u_okul_67 - x_v36_okul <= 0
 group_size_okul,_67#1029: u_okul_67 - x_v35_okul <= 0
 group_size_okul,_67#1030: u_okul_67 - x_v26_okul <= 0
 group_size_okul,_67#1031: u_okul_67 - x_v34_okul <= 0
 group_size_okul,_68: u_okul_68 - x_v47_okul <= 0
 group_size_okul,_68#1033: u_okul_68 - x_v48_okul <= 0
 group_size_okul,_68#1034: u_okul_68 - x_v56_okul <= 0
 group_size_okul,_68#1035: u_okul_68 - x_v58_okul <= 0
 group_size_okul,_68#1036: u_okul_68 - x_v57_okul <= 0
 group_size_okul,_68#1037: u_okul_68 - x_v46_okul <= 0
 group_size_okul,_69: u_okul_69 - x_v33_okul <= 0
 group_size_okul,_69#1039: u_okul_69 - x_v35_okul <= 0
 group_size_okul,_69#1040: u_okul_69 - x_v45_okul <= 0
 group_size_okul,_69#1041: u_okul_69 - x_v34_okul <= 0
 group_size_okul,_69#1042: u_okul_69 - x_v44_okul <= 0
 group_size_okul,_69#1043: u_okul_69 - x_v43_okul <= 0
 group_size_okul,_70: u_okul_70 - x_v79_okul <= 0
 group_size_okul,_70#1045: u_okul_70 - x_v78_okul <= 0
 group_size_okul,_70#1046: u_okul_70 - x_v67_okul <= 0
 group_size_okul,_70#1047: u_okul_70 - x_v69_okul <= 0
 group_size_okul,_70#1048: u_okul_70 - x_v68_okul <= 0
 group_size_okul,_70#1049: u_okul_70 - x_v77_okul <= 0
 group_size_okul,_71: u_okul_71 - x_v38_okul <= 0
 group_size_okul,_71#1051: u_okul_71 - x_v27_okul <= 0
 group_size_okul,_71#1052: u_okul_71 - x_v26_okul <= 0
 group_size_okul,_71#1053: u_okul_71 - x_v37_okul <= 0
 group_size_okul,_71#1054: u_okul_71 - x_v28_okul <= 0
 group_size_okul,_71#1055: u_okul_71 - x_v36_okul <= 0
 c1057: x_v1_melik - u_melik_38 <= 0
 c1058: u_melik_38 <= 1
 c1059: x_v2_melik - u_melik_38 - u_melik_43 <= 0
 c1060: u_melik_38 + u_melik_43 <= 1
 c1061: x_v3_melik - u_melik_0 - u_melik_43 <= 0
 c1062: u_melik_0 + u_melik_43 <= 1
 c1063: x_v4_melik - u_melik_0 - u_melik_20 <= 0
 c1064: u_melik_0 + u_melik_20 <= 1
 c1065: x_v5_melik - u_melik_20 - u_melik_48 <= 0
 c1066: u_melik_20 + u_melik_48 <= 1
 c1067: x_v6_melik - u_melik_48 - u_melik_67 <= 0
 c1068: u_melik_48 + u_melik_67 <= 1
 c1069: x_v7_melik - u_melik_19 - u_melik_67 <= 0
 c1070: u_melik_19 + u_melik_67 <= 1
 c1071: x_v8_melik - u_melik_19 - u_melik_76 <= 0
 c1072: u_melik_19 + u_melik_76 <= 1
 c1073: x_v9_melik - u_melik_76 - u_melik_77 <= 0
 c1074: u_melik_76 + u_melik_77 <= 1
 c1075: x_v10_melik - u_melik_77 <= 0
 c1076: u_melik_77 <= 1
 c1077: x_v11_melik - u_melik_38 - u_melik_70 <= 0
 c1078: u_melik_38 + u_melik_70 <= 1
 c1079: x_v12_melik - u_melik_38 - u_melik_43 - u_melik_65 - u_melik_70 <= 0
 c1080: u_melik_38 + u_melik_43 + u_melik_65 + u_melik_70 <= 1
 c1081: x_v13_melik - u_melik_0 - u_melik_43 - u_melik_57 - u_melik_65 <= 0
 c1082: u_melik_0 + u_melik_43 + u_melik_57 + u_melik_65 <= 1
 c1083: x_v14_melik - u_melik_0 - u_melik_18 - u_melik_20 - u_melik_57 <= 0
 c1084: u_melik_0 + u_melik_18 + u_melik_20 + u_melik_57 <= 1
 c1085: x_v15_melik - u_melik_18 - u_melik_20 - u_melik_42 - u_melik_48 <= 0
 c1086: u_melik_18 + u_melik_20 + u_melik_42 + u_melik_48 <= 1
 c1087: x_v16_melik - u_melik_30 - u_melik_42 - u_melik_48 - u_melik_67 <= 0
 c1088: u_melik_30 + u_melik_42 + u_melik_48 + u_melik_67 <= 1
 c1089: x_v17_melik - u_melik_19 - u_melik_30 - u_melik_46 - u_melik_67 <= 0
 c1090: u_melik_19 + u_melik_30 + u_melik_46 + u_melik_67 <= 1
 c1091: x_v18_melik - u_melik_19 - u_melik_29 - u_melik_46 - u_melik_76 <= 0
 c1092: u_melik_19 + u_melik_29 + u_melik_46 + u_melik_76 <= 1
 c1093: x_v19_melik - u_melik_29 - u_melik_60 - u_melik_76 - u_melik_77 <= 0
 c1094: u_melik_29 + u_melik_60 + u_melik_76 + u_melik_77 <= 1
 c1095: x_v20_melik - u_melik_60 - u_melik_77 <= 0
 c1096: u_melik_60 + u_melik_77 <= 1
 c1097: x_v21_melik - u_melik_61 - u_melik_70 <= 0
 c1098: u_melik_61 + u_melik_70 <= 1
 c1099: x_v22_melik - u_melik_55 - u_melik_61 - u_melik_65 - u_melik_70 <= 0
 c1100: u_melik_55 + u_melik_61 + u_melik_65 + u_melik_70 <= 1
 c1101: x_v23_melik - u_melik_55 - u_melik_57 - u_melik_65 - u_melik_72 <= 0
 c1102: u_melik_55 + u_melik_57 + u_melik_65 + u_melik_72 <= 1
 c1103: x_v24_melik - u_melik_18 - u_melik_53 - u_melik_57 - u_melik_72 <= 0
 c1104: u_melik_18 + u_melik_53 + u_melik_57 + u_melik_72 <= 1
 c1105: x_v25_melik - u_melik_18 - u_melik_42 - u_melik_53 - u_melik_74 <= 0
 c1106: u_melik_18 + u_melik_42 + u_melik_53 + u_melik_74 <= 1
 c1107: x_v26_melik - u_melik_30 - u_melik_42 - u_melik_45 - u_melik_74 <= 0
 c1108: u_melik_30 + u_melik_42 + u_melik_45 + u_melik_74 <= 1
 c1109: x_v27_melik - u_melik_30 - u_melik_45 - u_melik_46 - u_melik_66 <= 0
 c1110: u_melik_30 + u_melik_45 + u_melik_46 + u_melik_66 <= 1
 c1111: x_v28_melik - u_melik_29 - u_melik_40 - u_melik_46 - u_melik_66 <= 0
 c1112: u_melik_29 + u_melik_40 + u_melik_46 + u_melik_66 <= 1
 c1113: x_v29_melik - u_melik_29 - u_melik_31 - u_melik_40 - u_melik_60 <= 0
 c1114: u_melik_29 + u_melik_31 + u_melik_40 + u_melik_60 <= 1
 c1115: x_v30_melik - u_melik_31 - u_melik_60 <= 0
 c1116: u_melik_31 + u_melik_60 <= 1
 c1117: x_v31_melik - u_melik_22 - u_melik_61 <= 0
 c1118: u_melik_22 + u_melik_61 <= 1
 c1119: x_v32_melik - u_melik_22 - u_melik_27 - u_melik_55 - u_melik_61 <= 0
 c1120: u_melik_22 + u_melik_27 + u_melik_55 + u_melik_61 <= 1
 c1121: x_v33_melik - u_melik_27 - u_melik_55 - u_melik_56 - u_melik_72 <= 0
 c1122: u_melik_27 + u_melik_55 + u_melik_56 + u_melik_72 <= 1
 c1123: x_v34_melik - u_melik_51 - u_melik_53 - u_melik_56 - u_melik_72 <= 0
 c1124: u_melik_51 + u_melik_53 + u_melik_56 + u_melik_72 <= 1
 c1125: x_v35_melik - u_melik_51 - u_melik_53 - u_melik_59 - u_melik_74 <= 0
 c1126: u_melik_51 + u_melik_53 + u_melik_59 + u_melik_74 <= 1
 c1127: x_v36_melik - u_melik_24 - u_melik_45 - u_melik_59 - u_melik_74 <= 0
 c1128: u_melik_24 + u_melik_45 + u_melik_59 + u_melik_74 <= 1
 c1129: x_v37_melik - u_melik_24 - u_melik_34 - u_melik_45 - u_melik_66 <= 0
 c1130: u_melik_24 + u_melik_34 + u_melik_45 + u_melik_66 <= 1
 c1131: x_v38_melik - u_melik_26 - u_melik_34 - u_melik_40 - u_melik_66 <= 0
 c1132: u_melik_26 + u_melik_34 + u_melik_40 + u_melik_66 <= 1
 c1133: x_v39_melik - u_melik_26 - u_melik_31 - u_melik_40 - u_melik_50 <= 0
 c1134: u_melik_26 + u_melik_31 + u_melik_40 + u_melik_50 <= 1
 c1135: x_v40_melik - u_melik_31 - u_melik_50 <= 0
 c1136: u_melik_31 + u_melik_50 <= 1
 c1137: x_v41_melik - u_melik_22 - u_melik_79 <= 0
 c1138: u_melik_22 + u_melik_79 <= 1
 c1139: x_v42_melik - u_melik_22 - u_melik_27 - u_melik_44 - u_melik_79 <= 0
 c1140: u_melik_22 + u_melik_27 + u_melik_44 + u_melik_79 <= 1
 c1141: x_v43_melik - u_melik_12 - u_melik_27 - u_melik_44 - u_melik_56 <= 0
 c1142: u_melik_12 + u_melik_27 + u_melik_44 + u_melik_56 <= 1
 c1143: x_v44_melik - u_melik_12 - u_melik_51 - u_melik_56 - u_melik_80 <= 0
 c1144: u_melik_12 + u_melik_51 + u_melik_56 + u_melik_80 <= 1
 c1145: x_v45_melik - u_melik_51 - u_melik_59 - u_melik_69 - u_melik_80 <= 0
 c1146: u_melik_51 + u_melik_59 + u_melik_69 + u_melik_80 <= 1
 c1147: x_v46_melik - u_melik_24 - u_melik_37 - u_melik_59 - u_melik_69 <= 0
 c1148: u_melik_24 + u_melik_37 + u_melik_59 + u_melik_69 <= 1
 c1149: x_v47_melik - u_melik_7 - u_melik_24 - u_melik_34 - u_melik_37 <= 0
 c1150: u_melik_7 + u_melik_24 + u_melik_34 + u_melik_37 <= 1
 c1151: x_v48_melik - u_melik_7 - u_melik_26 - u_melik_34 - u_melik_47 <= 0
 c1152: u_melik_7 + u_melik_26 + u_melik_34 + u_melik_47 <= 1
 c1153: x_v49_melik - u_melik_26 - u_melik_47 - u_melik_50 - u_melik_68 <= 0
 c1154: u_melik_26 + u_melik_47 + u_melik_50 + u_melik_68 <= 1
 c1155: x_v50_melik - u_melik_50 - u_melik_68 <= 0
 c1156: u_melik_50 + u_melik_68 <= 1
 c1157: x_v51_melik - u_melik_54 - u_melik_79 <= 0
 c1158: u_melik_54 + u_melik_79 <= 1
 c1159: x_v52_melik - u_melik_44 - u_melik_54 - u_melik_71 - u_melik_79 <= 0
 c1160: u_melik_44 + u_melik_54 + u_melik_71 + u_melik_79 <= 1
 c1161: x_v53_melik - u_melik_12 - u_melik_41 - u_melik_44 - u_melik_71 <= 0
 c1162: u_melik_12 + u_melik_41 + u_melik_44 + u_melik_71 <= 1
 c1163: x_v54_melik - u_melik_12 - u_melik_28 - u_melik_41 - u_melik_80 <= 0
 c1164: u_melik_12 + u_melik_28 + u_melik_41 + u_melik_80 <= 1
 c1165: x_v55_melik - u_melik_28 - u_melik_69 - u_melik_78 - u_melik_80 <= 0
 c1166: u_melik_28 + u_melik_69 + u_melik_78 + u_melik_80 <= 1
 c1167: x_v56_melik - u_melik_10 - u_melik_37 - u_melik_69 - u_melik_78 <= 0
 c1168: u_melik_10 + u_melik_37 + u_melik_69 + u_melik_78 <= 1
 c1169: x_v57_melik - u_melik_7 - u_melik_10 - u_melik_37 - u_melik_63 <= 0
 c1170: u_melik_7 + u_melik_10 + u_melik_37 + u_melik_63 <= 1
 c1171: x_v58_melik - u_melik_7 - u_melik_47 - u_melik_49 - u_melik_63 <= 0
 c1172: u_melik_7 + u_melik_47 + u_melik_49 + u_melik_63 <= 1
 c1173: x_v59_melik - u_melik_47 - u_melik_49 - u_melik_64 - u_melik_68 <= 0
 c1174: u_melik_47 + u_melik_49 + u_melik_64 + u_melik_68 <= 1
 c1175: x_v60_melik - u_melik_64 - u_melik_68 <= 0
 c1176: u_melik_64 + u_melik_68 <= 1
 c1177: x_v61_melik - u_melik_36 - u_melik_54 <= 0
 c1178: u_melik_36 + u_melik_54 <= 1
 c1179: x_v62_melik - u_melik_36 - u_melik_54 - u_melik_71 - u_melik_73 <= 0
 c1180: u_melik_36 + u_melik_54 + u_melik_71 + u_melik_73 <= 1
 c1181: x_v63_melik - u_melik_1 - u_melik_41 - u_melik_71 - u_melik_73 <= 0
 c1182: u_melik_1 + u_melik_41 + u_melik_71 + u_melik_73 <= 1
 c1183: x_v64_melik - u_melik_1 - u_melik_28 - u_melik_41 - u_melik_52 <= 0
 c1184: u_melik_1 + u_melik_28 + u_melik_41 + u_melik_52 <= 1
 c1185: x_v65_melik - u_melik_21 - u_melik_28 - u_melik_52 - u_melik_78 <= 0
 c1186: u_melik_21 + u_melik_28 + u_melik_52 + u_melik_78 <= 1
 c1187: x_v66_melik - u_melik_10 - u_melik_21 - u_melik_39 - u_melik_78 <= 0
 c1188: u_melik_10 + u_melik_21 + u_melik_39 + u_melik_78 <= 1
 c1189: x_v67_melik - u_melik_10 - u_melik_11 - u_melik_39 - u_melik_63 <= 0
 c1190: u_melik_10 + u_melik_11 + u_melik_39 + u_melik_63 <= 1
 c1191: x_v68_melik - u_melik_6 - u_melik_11 - u_melik_49 - u_melik_63 <= 0
 c1192: u_melik_6 + u_melik_11 + u_melik_49 + u_melik_63 <= 1
 c1193: x_v69_melik - u_melik_6 - u_melik_23 - u_melik_49 - u_melik_64 <= 0
 c1194: u_melik_6 + u_melik_23 + u_melik_49 + u_melik_64 <= 1
 c1195: x_v70_melik - u_melik_23 - u_melik_64 <= 0
 c1196: u_melik_23 + u_melik_64 <= 1
 c1197: x_v71_melik - u_melik_32 - u_melik_36 <= 0
 c1198: u_melik_32 + u_melik_36 <= 1
 c1199: x_v72_melik - u_melik_5 - u_melik_32 - u_melik_36 - u_melik_73 <= 0
 c1200: u_melik_5 + u_melik_32 + u_melik_36 + u_melik_73 <= 1
 c1201: x_v73_melik - u_melik_1 - u_melik_2 - u_melik_5 - u_melik_73 <= 0
 c1202: u_melik_1 + u_melik_2 + u_melik_5 + u_melik_73 <= 1
 c1203: x_v74_melik - u_melik_1 - u_melik_2 - u_melik_52 - u_melik_62 <= 0
 c1204: u_melik_1 + u_melik_2 + u_melik_52 + u_melik_62 <= 1
 c1205: x_v75_melik - u_melik_21 - u_melik_35 - u_melik_52 - u_melik_62 <= 0
 c1206: u_melik_21 + u_melik_35 + u_melik_52 + u_melik_62 <= 1
 c1207: x_v76_melik - u_melik_4 - u_melik_21 - u_melik_35 - u_melik_39 <= 0
 c1208: u_melik_4 + u_melik_21 + u_melik_35 + u_melik_39 <= 1
 c1209: x_v77_melik - u_melik_4 - u_melik_9 - u_melik_11 - u_melik_39 <= 0
 c1210: u_melik_4 + u_melik_9 + u_melik_11 + u_melik_39 <= 1
 c1211: x_v78_melik - u_melik_6 - u_melik_9 - u_melik_11 - u_melik_13 <= 0
 c1212: u_melik_6 + u_melik_9 + u_melik_11 + u_melik_13 <= 1
 c1213: x_v79_melik - u_melik_6 - u_melik_13 - u_melik_23 - u_melik_33 <= 0
 c1214: u_melik_6 + u_melik_13 + u_melik_23 + u_melik_33 <= 1
 c1215: x_v80_melik - u_melik_23 - u_melik_33 <= 0
 c1216: u_melik_23 + u_melik_33 <= 1
 c1217: x_v81_melik - u_melik_32 - u_melik_58 <= 0
 c1218: u_melik_32 + u_melik_58 <= 1
 c1219: x_v82_melik - u_melik_5 - u_melik_14 - u_melik_32 - u_melik_58 <= 0
 c1220: u_melik_5 + u_melik_14 + u_melik_32 + u_melik_58 <= 1
 c1221: x_v83_melik - u_melik_2 - u_melik_5 - u_melik_14 - u_melik_15 <= 0
 c1222: u_melik_2 + u_melik_5 + u_melik_14 + u_melik_15 <= 1
 c1223: x_v84_melik - u_melik_2 - u_melik_15 - u_melik_25 - u_melik_62 <= 0
 c1224: u_melik_2 + u_melik_15 + u_melik_25 + u_melik_62 <= 1
 c1225: x_v85_melik - u_melik_8 - u_melik_25 - u_melik_35 - u_melik_62 <= 0
 c1226: u_melik_8 + u_melik_25 + u_melik_35 + u_melik_62 <= 1
 c1227: x_v86_melik - u_melik_3 - u_melik_4 - u_melik_8 - u_melik_35 <= 0
 c1228: u_melik_3 + u_melik_4 + u_melik_8 + u_melik_35 <= 1
 c1229: x_v87_melik - u_melik_3 - u_melik_4 - u_melik_9 - u_melik_75 <= 0
 c1230: u_melik_3 + u_melik_4 + u_melik_9 + u_melik_75 <= 1
 c1231: x_v88_melik - u_melik_9 - u_melik_13 - u_melik_16 - u_melik_75 <= 0
 c1232: u_melik_9 + u_melik_13 + u_melik_16 + u_melik_75 <= 1
 c1233: x_v89_melik - u_melik_13 - u_melik_16 - u_melik_17 - u_melik_33 <= 0
 c1234: u_melik_13 + u_melik_16 + u_melik_17 + u_melik_33 <= 1
 c1235: x_v90_melik - u_melik_17 - u_melik_33 <= 0
 c1236: u_melik_17 + u_melik_33 <= 1
 c1237: x_v91_melik - u_melik_58 <= 0
 c1238: u_melik_58 <= 1
 c1239: x_v92_melik - u_melik_14 - u_melik_58 <= 0
 c1240: u_melik_14 + u_melik_58 <= 1
 c1241: x_v93_melik - u_melik_14 - u_melik_15 <= 0
 c1242: u_melik_14 + u_melik_15 <= 1
 c1243: x_v94_melik - u_melik_15 - u_melik_25 <= 0
 c1244: u_melik_15 + u_melik_25 <= 1
 c1245: x_v95_melik - u_melik_8 - u_melik_25 <= 0
 c1246: u_melik_8 + u_melik_25 <= 1
 c1247: x_v96_melik - u_melik_3 - u_melik_8 <= 0
 c1248: u_melik_3 + u_melik_8 <= 1
 c1249: x_v97_melik - u_melik_3 - u_melik_75 <= 0
 c1250: u_melik_3 + u_melik_75 <= 1
 c1251: x_v98_melik - u_melik_16 - u_melik_75 <= 0
 c1252: u_melik_16 + u_melik_75 <= 1
 c1253: x_v99_melik - u_melik_16 - u_melik_17 <= 0
 c1254: u_melik_16 + u_melik_17 <= 1
 c1255: x_v100_melik - u_melik_17 <= 0
 c1256: u_melik_17 <= 1
 c1257: x_v1_okul - u_okul_15 <= 0
 c1258: u_okul_15 <= 1
 c1259: x_v2_okul - u_okul_15 - u_okul_29 <= 0
 c1260: u_okul_15 + u_okul_29 <= 1
 c1261: x_v3_okul - u_okul_15 - u_okul_29 - u_okul_55 <= 0
 c1262: u_okul_15 + u_okul_29 + u_okul_55 <= 1
 c1263: x_v4_okul - u_okul_18 - u_okul_29 - u_okul_55 <= 0
 c1264: u_okul_18 + u_okul_29 + u_okul_55 <= 1
 c1265: x_v5_okul - u_okul_14 - u_okul_18 - u_okul_55 <= 0
 c1266: u_okul_14 + u_okul_18 + u_okul_55 <= 1
 c1267: x_v6_okul - u_okul_14 - u_okul_18 - u_okul_47 <= 0
 c1268: u_okul_14 + u_okul_18 + u_okul_47 <= 1
 c1269: x_v7_okul - u_okul_9 - u_okul_14 - u_okul_47 <= 0
 c1270: u_okul_9 + u_okul_14 + u_okul_47 <= 1
 c1271: x_v8_okul - u_okul_9 - u_okul_47 - u_okul_60 <= 0
 c1272: u_okul_9 + u_okul_47 + u_okul_60 <= 1
 c1273: x_v9_okul - u_okul_9 - u_okul_60 <= 0
 c1274: u_okul_9 + u_okul_60 <= 1
 c1275: x_v10_okul - u_okul_60 <= 0
 c1276: u_okul_60 <= 1
 c1277: x_v11_okul - u_okul_15 - u_okul_26 <= 0
 c1278: u_okul_15 + u_okul_26 <= 1
 c1279: x_v12_okul - u_okul_15 - u_okul_26 - u_okul_29 - u_okul_35 <= 0
 c1280: u_okul_15 + u_okul_26 + u_okul_29 + u_okul_35 <= 1
 c1281: x_v13_okul - u_okul_5 - u_okul_15 - u_okul_26 - u_okul_29 - u_okul_35
        - u_okul_55 <= 0
 c1282: u_okul_5 + u_okul_15 + u_okul_26 + u_okul_29 + u_okul_35 + u_okul_55
         <= 1
 c1283: x_v14_okul - u_okul_5 - u_okul_18 - u_okul_21 - u_okul_29 - u_okul_35
        - u_okul_55 <= 0
 c1284: u_okul_5 + u_okul_18 + u_okul_21 + u_okul_29 + u_okul_35 + u_okul_55
         <= 1
 c1285: x_v15_okul - u_okul_5 - u_okul_14 - u_okul_18 - u_okul_21 - u_okul_33
        - u_okul_55 <= 0
 c1286: u_okul_5 + u_okul_14 + u_okul_18 + u_okul_21 + u_okul_33 + u_okul_55
         <= 1
 c1287: x_v16_okul - u_okul_14 - u_okul_18 - u_okul_21 - u_okul_30 - u_okul_33
        - u_okul_47 <= 0
 c1288: u_okul_14 + u_okul_18 + u_okul_21 + u_okul_30 + u_okul_33 + u_okul_47
         <= 1
 c1289: x_v17_okul - u_okul_9 - u_okul_14 - u_okul_22 - u_okul_30 - u_okul_33
        - u_okul_47 <= 0
 c1290: u_okul_9 + u_okul_14 + u_okul_22 + u_okul_30 + u_okul_33 + u_okul_47
         <= 1
 c1291: x_v18_okul - u_okul_1 - u_okul_9 - u_okul_22 - u_okul_30 - u_okul_47
        - u_okul_60 <= 0
 c1292: u_okul_1 + u_okul_9 + u_okul_22 + u_okul_30 + u_okul_47 + u_okul_60 <= 
        1
 c1293: x_v19_okul - u_okul_1 - u_okul_9 - u_okul_22 - u_okul_60 <= 0
 c1294: u_okul_1 + u_okul_9 + u_okul_22 + u_okul_60 <= 1
 c1295: x_v20_okul - u_okul_1 - u_okul_60 <= 0
 c1296: u_okul_1 + u_okul_60 <= 1
 c1297: x_v21_okul - u_okul_26 - u_okul_36 <= 0
 c1298: u_okul_26 + u_okul_36 <= 1
 c1299: x_v22_okul - u_okul_26 - u_okul_35 - u_okul_36 - u_okul_46 <= 0
 c1300: u_okul_26 + u_okul_35 + u_okul_36 + u_okul_46 <= 1
 c1301: x_v23_okul - u_okul_5 - u_okul_26 - u_okul_35 - u_okul_36 - u_okul_46
        - u_okul_56 <= 0
 c1302: u_okul_5 + u_okul_26 + u_okul_35 + u_okul_36 + u_okul_46 + u_okul_56
         <= 1
 c1303: x_v24_okul - u_okul_5 - u_okul_21 - u_okul_35 - u_okul_46 - u_okul_56
        - u_okul_67 <= 0
 c1304: u_okul_5 + u_okul_21 + u_okul_35 + u_okul_46 + u_okul_56 + u_okul_67
         <= 1
 c1305: x_v25_okul - u_okul_5 - u_okul_21 - u_okul_33 - u_okul_56 - u_okul_58
        - u_okul_67 <= 0
 c1306: u_okul_5 + u_okul_21 + u_okul_33 + u_okul_56 + u_okul_58 + u_okul_67
         <= 1
 c1307: x_v26_okul - u_okul_21 - u_okul_30 - u_okul_33 - u_okul_58 - u_okul_67
        - u_okul_71 <= 0
 c1308: u_okul_21 + u_okul_30 + u_okul_33 + u_okul_58 + u_okul_67 + u_okul_71
         <= 1
 c1309: x_v27_okul - u_okul_22 - u_okul_30 - u_okul_33 - u_okul_40 - u_okul_58
        - u_okul_71 <= 0
 c1310: u_okul_22 + u_okul_30 + u_okul_33 + u_okul_40 + u_okul_58 + u_okul_71
         <= 1
 c1311: x_v28_okul - u_okul_1 - u_okul_22 - u_okul_30 - u_okul_40 - u_okul_65
        - u_okul_71 <= 0
 c1312: u_okul_1 + u_okul_22 + u_okul_30 + u_okul_40 + u_okul_65 + u_okul_71
         <= 1
 c1313: x_v29_okul - u_okul_1 - u_okul_22 - u_okul_40 - u_okul_65 <= 0
 c1314: u_okul_1 + u_okul_22 + u_okul_40 + u_okul_65 <= 1
 c1315: x_v30_okul - u_okul_1 - u_okul_65 <= 0
 c1316: u_okul_1 + u_okul_65 <= 1
 c1317: x_v31_okul - u_okul_16 - u_okul_36 <= 0
 c1318: u_okul_16 + u_okul_36 <= 1
 c1319: x_v32_okul - u_okul_16 - u_okul_36 - u_okul_46 - u_okul_57 <= 0
 c1320: u_okul_16 + u_okul_36 + u_okul_46 + u_okul_57 <= 1
 c1321: x_v33_okul - u_okul_16 - u_okul_36 - u_okul_46 - u_okul_56 - u_okul_57
        - u_okul_69 <= 0
 c1322: u_okul_16 + u_okul_36 + u_okul_46 + u_okul_56 + u_okul_57 + u_okul_69
         <= 1
 c1323: x_v34_okul - u_okul_2 - u_okul_46 - u_okul_56 - u_okul_57 - u_okul_67
        - u_okul_69 <= 0
 c1324: u_okul_2 + u_okul_46 + u_okul_56 + u_okul_57 + u_okul_67 + u_okul_69
         <= 1
 c1325: x_v35_okul - u_okul_2 - u_okul_53 - u_okul_56 - u_okul_58 - u_okul_67
        - u_okul_69 <= 0
 c1326: u_okul_2 + u_okul_53 + u_okul_56 + u_okul_58 + u_okul_67 + u_okul_69
         <= 1
 c1327: x_v36_okul - u_okul_2 - u_okul_34 - u_okul_53 - u_okul_58 - u_okul_67
        - u_okul_71 <= 0
 c1328: u_okul_2 + u_okul_34 + u_okul_53 + u_okul_58 + u_okul_67 + u_okul_71
         <= 1
 c1329: x_v37_okul - u_okul_19 - u_okul_34 - u_okul_40 - u_okul_53 - u_okul_58
        - u_okul_71 <= 0
 c1330: u_okul_19 + u_okul_34 + u_okul_40 + u_okul_53 + u_okul_58 + u_okul_71
         <= 1
 c1331: x_v38_okul - u_okul_19 - u_okul_34 - u_okul_40 - u_okul_65 - u_okul_66
        - u_okul_71 <= 0
 c1332: u_okul_19 + u_okul_34 + u_okul_40 + u_okul_65 + u_okul_66 + u_okul_71
         <= 1
 c1333: x_v39_okul - u_okul_19 - u_okul_40 - u_okul_65 - u_okul_66 <= 0
 c1334: u_okul_19 + u_okul_40 + u_okul_65 + u_okul_66 <= 1
 c1335: x_v40_okul - u_okul_65 - u_okul_66 <= 0
 c1336: u_okul_65 + u_okul_66 <= 1
 c1337: x_v41_okul - u_okul_16 - u_okul_62 <= 0
 c1338: u_okul_16 + u_okul_62 <= 1
 c1339: x_v42_okul - u_okul_16 - u_okul_51 - u_okul_57 - u_okul_62 <= 0
 c1340: u_okul_16 + u_okul_51 + u_okul_57 + u_okul_62 <= 1
 c1341: x_v43_okul - u_okul_0 - u_okul_16 - u_okul_51 - u_okul_57 - u_okul_62
        - u_okul_69 <= 0
 c1342: u_okul_0 + u_okul_16 + u_okul_51 + u_okul_57 + u_okul_62 + u_okul_69
         <= 1
 c1343: x_v44_okul - u_okul_0 - u_okul_2 - u_okul_51 - u_okul_52 - u_okul_57
        - u_okul_69 <= 0
 c1344: u_okul_0 + u_okul_2 + u_okul_51 + u_okul_52 + u_okul_57 + u_okul_69 <= 
        1
 c1345: x_v45_okul - u_okul_0 - u_okul_2 - u_okul_41 - u_okul_52 - u_okul_53
        - u_okul_69 <= 0
 c1346: u_okul_0 + u_okul_2 + u_okul_41 + u_okul_52 + u_okul_53 + u_okul_69 <= 
        1
 c1347: x_v46_okul - u_okul_2 - u_okul_34 - u_okul_41 - u_okul_52 - u_okul_53
        - u_okul_68 <= 0
 c1348: u_okul_2 + u_okul_34 + u_okul_41 + u_okul_52 + u_okul_53 + u_okul_68
         <= 1
 c1349: x_v47_okul - u_okul_6 - u_okul_19 - u_okul_34 - u_okul_41 - u_okul_53
        - u_okul_68 <= 0
 c1350: u_okul_6 + u_okul_19 + u_okul_34 + u_okul_41 + u_okul_53 + u_okul_68
         <= 1
 c1351: x_v48_okul - u_okul_3 - u_okul_6 - u_okul_19 - u_okul_34 - u_okul_66
        - u_okul_68 <= 0
 c1352: u_okul_3 + u_okul_6 + u_okul_19 + u_okul_34 + u_okul_66 + u_okul_68 <= 
        1
 c1353: x_v49_okul - u_okul_3 - u_okul_6 - u_okul_19 - u_okul_66 <= 0
 c1354: u_okul_3 + u_okul_6 + u_okul_19 + u_okul_66 <= 1
 c1355: x_v50_okul - u_okul_3 - u_okul_66 <= 0
 c1356: u_okul_3 + u_okul_66 <= 1
 c1357: x_v51_okul - u_okul_28 - u_okul_62 <= 0
 c1358: u_okul_28 + u_okul_62 <= 1
 c1359: x_v52_okul - u_okul_7 - u_okul_28 - u_okul_51 - u_okul_62 <= 0
 c1360: u_okul_7 + u_okul_28 + u_okul_51 + u_okul_62 <= 1
 c1361: x_v53_okul - u_okul_0 - u_okul_7 - u_okul_28 - u_okul_37 - u_okul_51
        - u_okul_62 <= 0
 c1362: u_okul_0 + u_okul_7 + u_okul_28 + u_okul_37 + u_okul_51 + u_okul_62 <= 
        1
 c1363: x_v54_okul - u_okul_0 - u_okul_7 - u_okul_37 - u_okul_39 - u_okul_51
        - u_okul_52 <= 0
 c1364: u_okul_0 + u_okul_7 + u_okul_37 + u_okul_39 + u_okul_51 + u_okul_52 <= 
        1
 c1365: x_v55_okul - u_okul_0 - u_okul_25 - u_okul_37 - u_okul_39 - u_okul_41
        - u_okul_52 <= 0
 c1366: u_okul_0 + u_okul_25 + u_okul_37 + u_okul_39 + u_okul_41 + u_okul_52
         <= 1
 c1367: x_v56_okul - u_okul_25 - u_okul_39 - u_okul_41 - u_okul_49 - u_okul_52
        - u_okul_68 <= 0
 c1368: u_okul_25 + u_okul_39 + u_okul_41 + u_okul_49 + u_okul_52 + u_okul_68
         <= 1
 c1369: x_v57_okul - u_okul_6 - u_okul_25 - u_okul_41 - u_okul_49 - u_okul_59
        - u_okul_68 <= 0
 c1370: u_okul_6 + u_okul_25 + u_okul_41 + u_okul_49 + u_okul_59 + u_okul_68
         <= 1
 c1371: x_v58_okul - u_okul_3 - u_okul_6 - u_okul_11 - u_okul_49 - u_okul_59
        - u_okul_68 <= 0
 c1372: u_okul_3 + u_okul_6 + u_okul_11 + u_okul_49 + u_okul_59 + u_okul_68 <= 
        1
 c1373: x_v59_okul - u_okul_3 - u_okul_6 - u_okul_11 - u_okul_59 <= 0
 c1374: u_okul_3 + u_okul_6 + u_okul_11 + u_okul_59 <= 1
 c1375: x_v60_okul - u_okul_3 - u_okul_11 <= 0
 c1376: u_okul_3 + u_okul_11 <= 1
 c1377: x_v61_okul - u_okul_28 - u_okul_63 <= 0
 c1378: u_okul_28 + u_okul_63 <= 1
 c1379: x_v62_okul - u_okul_7 - u_okul_28 - u_okul_31 - u_okul_63 <= 0
 c1380: u_okul_7 + u_okul_28 + u_okul_31 + u_okul_63 <= 1
 c1381: x_v63_okul - u_okul_7 - u_okul_28 - u_okul_31 - u_okul_37 - u_okul_42
        - u_okul_63 <= 0
 c1382: u_okul_7 + u_okul_28 + u_okul_31 + u_okul_37 + u_okul_42 + u_okul_63
         <= 1
 c1383: x_v64_okul - u_okul_7 - u_okul_10 - u_okul_31 - u_okul_37 - u_okul_39
        - u_okul_42 <= 0
 c1384: u_okul_7 + u_okul_10 + u_okul_31 + u_okul_37 + u_okul_39 + u_okul_42
         <= 1
 c1385: x_v65_okul - u_okul_10 - u_okul_12 - u_okul_25 - u_okul_37 - u_okul_39
        - u_okul_42 <= 0
 c1386: u_okul_10 + u_okul_12 + u_okul_25 + u_okul_37 + u_okul_39 + u_okul_42
         <= 1
 c1387: x_v66_okul - u_okul_10 - u_okul_12 - u_okul_25 - u_okul_32 - u_okul_39
        - u_okul_49 <= 0
 c1388: u_okul_10 + u_okul_12 + u_okul_25 + u_okul_32 + u_okul_39 + u_okul_49
         <= 1
 c1389: x_v67_okul - u_okul_12 - u_okul_25 - u_okul_32 - u_okul_49 - u_okul_59
        - u_okul_70 <= 0
 c1390: u_okul_12 + u_okul_25 + u_okul_32 + u_okul_49 + u_okul_59 + u_okul_70
         <= 1
 c1391: x_v68_okul - u_okul_11 - u_okul_32 - u_okul_49 - u_okul_59 - u_okul_61
        - u_okul_70 <= 0
 c1392: u_okul_11 + u_okul_32 + u_okul_49 + u_okul_59 + u_okul_61 + u_okul_70
         <= 1
 c1393: x_v69_okul - u_okul_11 - u_okul_59 - u_okul_61 - u_okul_70 <= 0
 c1394: u_okul_11 + u_okul_59 + u_okul_61 + u_okul_70 <= 1
 c1395: x_v70_okul - u_okul_11 - u_okul_61 <= 0
 c1396: u_okul_11 + u_okul_61 <= 1
 c1397: x_v71_okul - u_okul_20 - u_okul_63 <= 0
 c1398: u_okul_20 + u_okul_63 <= 1
 c1399: x_v72_okul - u_okul_20 - u_okul_31 - u_okul_38 - u_okul_63 <= 0
 c1400: u_okul_20 + u_okul_31 + u_okul_38 + u_okul_63 <= 1
 c1401: x_v73_okul - u_okul_13 - u_okul_20 - u_okul_31 - u_okul_38 - u_okul_42
        - u_okul_63 <= 0
 c1402: u_okul_13 + u_okul_20 + u_okul_31 + u_okul_38 + u_okul_42 + u_okul_63
         <= 1
 c1403: x_v74_okul - u_okul_10 - u_okul_13 - u_okul_24 - u_okul_31 - u_okul_38
        - u_okul_42 <= 0
 c1404: u_okul_10 + u_okul_13 + u_okul_24 + u_okul_31 + u_okul_38 + u_okul_42
         <= 1
 c1405: x_v75_okul - u_okul_10 - u_okul_12 - u_okul_13 - u_okul_24 - u_okul_42
        - u_okul_54 <= 0
 c1406: u_okul_10 + u_okul_12 + u_okul_13 + u_okul_24 + u_okul_42 + u_okul_54
         <= 1
 c1407: x_v76_okul - u_okul_10 - u_okul_12 - u_okul_24 - u_okul_32 - u_okul_45
        - u_okul_54 <= 0
 c1408: u_okul_10 + u_okul_12 + u_okul_24 + u_okul_32 + u_okul_45 + u_okul_54
         <= 1
 c1409: x_v77_okul - u_okul_8 - u_okul_12 - u_okul_32 - u_okul_45 - u_okul_54
        - u_okul_70 <= 0
 c1410: u_okul_8 + u_okul_12 + u_okul_32 + u_okul_45 + u_okul_54 + u_okul_70
         <= 1
 c1411: x_v78_okul - u_okul_4 - u_okul_8 - u_okul_32 - u_okul_45 - u_okul_61
        - u_okul_70 <= 0
 c1412: u_okul_4 + u_okul_8 + u_okul_32 + u_okul_45 + u_okul_61 + u_okul_70 <= 
        1
 c1413: x_v79_okul - u_okul_4 - u_okul_8 - u_okul_61 - u_okul_70 <= 0
 c1414: u_okul_4 + u_okul_8 + u_okul_61 + u_okul_70 <= 1
 c1415: x_v80_okul - u_okul_4 - u_okul_61 <= 0
 c1416: u_okul_4 + u_okul_61 <= 1
 c1417: x_v81_okul - u_okul_17 - u_okul_20 <= 0
 c1418: u_okul_17 + u_okul_20 <= 1
 c1419: x_v82_okul - u_okul_17 - u_okul_20 - u_okul_38 - u_okul_48 <= 0
 c1420: u_okul_17 + u_okul_20 + u_okul_38 + u_okul_48 <= 1
 c1421: x_v83_okul - u_okul_13 - u_okul_17 - u_okul_20 - u_okul_38 - u_okul_48
        - u_okul_50 <= 0
 c1422: u_okul_13 + u_okul_17 + u_okul_20 + u_okul_38 + u_okul_48 + u_okul_50
         <= 1
 c1423: x_v84_okul - u_okul_13 - u_okul_24 - u_okul_38 - u_okul_43 - u_okul_48
        - u_okul_50 <= 0
 c1424: u_okul_13 + u_okul_24 + u_okul_38 + u_okul_43 + u_okul_48 + u_okul_50
         <= 1
 c1425: x_v85_okul - u_okul_13 - u_okul_24 - u_okul_27 - u_okul_43 - u_okul_50
        - u_okul_54 <= 0
 c1426: u_okul_13 + u_okul_24 + u_okul_27 + u_okul_43 + u_okul_50 + u_okul_54
         <= 1
 c1427: x_v86_okul - u_okul_24 - u_okul_27 - u_okul_43 - u_okul_45 - u_okul_54
        - u_okul_64 <= 0
 c1428: u_okul_24 + u_okul_27 + u_okul_43 + u_okul_45 + u_okul_54 + u_okul_64
         <= 1
 c1429: x_v87_okul - u_okul_8 - u_okul_27 - u_okul_44 - u_okul_45 - u_okul_54
        - u_okul_64 <= 0
 c1430: u_okul_8 + u_okul_27 + u_okul_44 + u_okul_45 + u_okul_54 + u_okul_64
         <= 1
 c1431: x_v88_okul - u_okul_4 - u_okul_8 - u_okul_23 - u_okul_44 - u_okul_45
        - u_okul_64 <= 0
 c1432: u_okul_4 + u_okul_8 + u_okul_23 + u_okul_44 + u_okul_45 + u_okul_64 <= 
        1
 c1433: x_v89_okul - u_okul_4 - u_okul_8 - u_okul_23 - u_okul_44 <= 0
 c1434: u_okul_4 + u_okul_8 + u_okul_23 + u_okul_44 <= 1
 c1435: x_v90_okul - u_okul_4 - u_okul_23 <= 0
 c1436: u_okul_4 + u_okul_23 <= 1
 c1437: x_v91_okul - u_okul_17 <= 0
 c1438: u_okul_17 <= 1
 c1439: x_v92_okul - u_okul_17 - u_okul_48 <= 0
 c1440: u_okul_17 + u_okul_48 <= 1
 c1441: x_v93_okul - u_okul_17 - u_okul_48 - u_okul_50 <= 0
 c1442: u_okul_17 + u_okul_48 + u_okul_50 <= 1
 c1443: x_v94_okul - u_okul_43 - u_okul_48 - u_okul_50 <= 0
 c1444: u_okul_43 + u_okul_48 + u_okul_50 <= 1
 c1445: x_v95_okul - u_okul_27 - u_okul_43 - u_okul_50 <= 0
 c1446: u_okul_27 + u_okul_43 + u_okul_50 <= 1
 c1447: x_v96_okul - u_okul_27 - u_okul_43 - u_okul_64 <= 0
 c1448: u_okul_27 + u_okul_43 + u_okul_64 <= 1
 c1449: x_v97_okul - u_okul_27 - u_okul_44 - u_okul_64 <= 0
 c1450: u_okul_27 + u_okul_44 + u_okul_64 <= 1
 c1451: x_v98_okul - u_okul_23 - u_okul_44 - u_okul_64 <= 0
 c1452: u_okul_23 + u_okul_44 + u_okul_64 <= 1
 c1453: x_v99_okul - u_okul_23 - u_okul_44 <= 0
 c1454: u_okul_23 + u_okul_44 <= 1
 c1455: x_v100_okul - u_okul_23 <= 0
 c1456: u_okul_23 <= 1

Bounds
 0 <= x_v1_melik <= 1
 0 <= x_v1_okul <= 1
 0 <= x_v1_R <= 1
 0 <= x_v2_melik <= 1
 0 <= x_v2_okul <= 1
 0 <= x_v2_R <= 1
 0 <= x_v3_melik <= 1
 0 <= x_v3_okul <= 1
 0 <= x_v3_R <= 1
 0 <= x_v4_melik <= 1
 0 <= x_v4_okul <= 1
 0 <= x_v4_R <= 1
 0 <= x_v5_melik <= 1
 0 <= x_v5_okul <= 1
 0 <= x_v5_R <= 1
 0 <= x_v6_melik <= 1
 0 <= x_v6_okul <= 1
 0 <= x_v6_R <= 1
 0 <= x_v7_melik <= 1
 0 <= x_v7_okul <= 1
 0 <= x_v7_R <= 1
 0 <= x_v8_melik <= 1
 0 <= x_v8_okul <= 1
 0 <= x_v8_R <= 1
 0 <= x_v9_melik <= 1
 0 <= x_v9_okul <= 1
 0 <= x_v9_R <= 1
 0 <= x_v10_melik <= 1
 0 <= x_v10_okul <= 1
 0 <= x_v10_R <= 1
 0 <= x_v11_melik <= 1
 0 <= x_v11_okul <= 1
 0 <= x_v11_R <= 1
 0 <= x_v12_melik <= 1
 0 <= x_v12_okul <= 1
 0 <= x_v12_R <= 1
 0 <= x_v13_melik <= 1
 0 <= x_v13_okul <= 1
 0 <= x_v13_R <= 1
 0 <= x_v14_melik <= 1
 0 <= x_v14_okul <= 1
 0 <= x_v14_R <= 1
 0 <= x_v15_melik <= 1
 0 <= x_v15_okul <= 1
 0 <= x_v15_R <= 1
 0 <= x_v16_melik <= 1
 0 <= x_v16_okul <= 1
 0 <= x_v16_R <= 1
 0 <= x_v17_melik <= 1
 0 <= x_v17_okul <= 1
 0 <= x_v17_R <= 1
 0 <= x_v18_melik <= 1
 0 <= x_v18_okul <= 1
 0 <= x_v18_R <= 1
 0 <= x_v19_melik <= 1
 0 <= x_v19_okul <= 1
 0 <= x_v19_R <= 1
 0 <= x_v20_melik <= 1
 0 <= x_v20_okul <= 1
 0 <= x_v20_R <= 1
 0 <= x_v21_melik <= 1
 0 <= x_v21_okul <= 1
 0 <= x_v21_R <= 1
 0 <= x_v22_melik <= 1
 0 <= x_v22_okul <= 1
 0 <= x_v22_R <= 1
 0 <= x_v23_melik <= 1
 0 <= x_v23_okul <= 1
 0 <= x_v23_R <= 1
 0 <= x_v24_melik <= 1
 0 <= x_v24_okul <= 1
 0 <= x_v24_R <= 1
 0 <= x_v25_melik <= 1
 0 <= x_v25_okul <= 1
 0 <= x_v25_R <= 1
 0 <= x_v26_melik <= 1
 0 <= x_v26_okul <= 1
 0 <= x_v26_R <= 1
 0 <= x_v27_melik <= 1
 0 <= x_v27_okul <= 1
 0 <= x_v27_R <= 1
 0 <= x_v28_melik <= 1
 0 <= x_v28_okul <= 1
 0 <= x_v28_R <= 1
 0 <= x_v29_melik <= 1
 0 <= x_v29_okul <= 1
 0 <= x_v29_R <= 1
 0 <= x_v30_melik <= 1
 0 <= x_v30_okul <= 1
 0 <= x_v30_R <= 1
 0 <= x_v31_melik <= 1
 0 <= x_v31_okul <= 1
 0 <= x_v31_R <= 1
 0 <= x_v32_melik <= 1
 0 <= x_v32_okul <= 1
 0 <= x_v32_R <= 1
 0 <= x_v33_melik <= 1
 0 <= x_v33_okul <= 1
 0 <= x_v33_R <= 1
 0 <= x_v34_melik <= 1
 0 <= x_v34_okul <= 1
 0 <= x_v34_R <= 1
 0 <= x_v35_melik <= 1
 0 <= x_v35_okul <= 1
 0 <= x_v35_R <= 1
 0 <= x_v36_melik <= 1
 0 <= x_v36_okul <= 1
 0 <= x_v36_R <= 1
 0 <= x_v37_melik <= 1
 0 <= x_v37_okul <= 1
 0 <= x_v37_R <= 1
 0 <= x_v38_melik <= 1
 0 <= x_v38_okul <= 1
 0 <= x_v38_R <= 1
 0 <= x_v39_melik <= 1
 0 <= x_v39_okul <= 1
 0 <= x_v39_R <= 1
 0 <= x_v40_melik <= 1
 0 <= x_v40_okul <= 1
 0 <= x_v40_R <= 1
 0 <= x_v41_melik <= 1
 0 <= x_v41_okul <= 1
 0 <= x_v41_R <= 1
 0 <= x_v42_melik <= 1
 0 <= x_v42_okul <= 1
 0 <= x_v42_R <= 1
 0 <= x_v43_melik <= 1
 0 <= x_v43_okul <= 1
 0 <= x_v43_R <= 1
 0 <= x_v44_melik <= 1
 0 <= x_v44_okul <= 1
 0 <= x_v44_R <= 1
 0 <= x_v45_melik <= 1
 0 <= x_v45_okul <= 1
 0 <= x_v45_R <= 1
 0 <= x_v46_melik <= 1
 0 <= x_v46_okul <= 1
 0 <= x_v46_R <= 1
 0 <= x_v47_melik <= 1
 0 <= x_v47_okul <= 1
 0 <= x_v47_R <= 1
 0 <= x_v48_melik <= 1
 0 <= x_v48_okul <= 1
 0 <= x_v48_R <= 1
 0 <= x_v49_melik <= 1
 0 <= x_v49_okul <= 1
 0 <= x_v49_R <= 1
 0 <= x_v50_melik <= 1
 0 <= x_v50_okul <= 1
 0 <= x_v50_R <= 1
 0 <= x_v51_melik <= 1
 0 <= x_v51_okul <= 1
 0 <= x_v51_R <= 1
 0 <= x_v52_melik <= 1
 0 <= x_v52_okul <= 1
 0 <= x_v52_R <= 1
 0 <= x_v53_melik <= 1
 0 <= x_v53_okul <= 1
 0 <= x_v53_R <= 1
 0 <= x_v54_melik <= 1
 0 <= x_v54_okul <= 1
 0 <= x_v54_R <= 1
 0 <= x_v55_melik <= 1
 0 <= x_v55_okul <= 1
 0 <= x_v55_R <= 1
 0 <= x_v56_melik <= 1
 0 <= x_v56_okul <= 1
 0 <= x_v56_R <= 1
 0 <= x_v57_melik <= 1
 0 <= x_v57_okul <= 1
 0 <= x_v57_R <= 1
 0 <= x_v58_melik <= 1
 0 <= x_v58_okul <= 1
 0 <= x_v58_R <= 1
 0 <= x_v59_melik <= 1
 0 <= x_v59_okul <= 1
 0 <= x_v59_R <= 1
 0 <= x_v60_melik <= 1
 0 <= x_v60_okul <= 1
 0 <= x_v60_R <= 1
 0 <= x_v61_melik <= 1
 0 <= x_v61_okul <= 1
 0 <= x_v61_R <= 1
 0 <= x_v62_melik <= 1
 0 <= x_v62_okul <= 1
 0 <= x_v62_R <= 1
 0 <= x_v63_melik <= 1
 0 <= x_v63_okul <= 1
 0 <= x_v63_R <= 1
 0 <= x_v64_melik <= 1
 0 <= x_v64_okul <= 1
 0 <= x_v64_R <= 1
 0 <= x_v65_melik <= 1
 0 <= x_v65_okul <= 1
 0 <= x_v65_R <= 1
 0 <= x_v66_melik <= 1
 0 <= x_v66_okul <= 1
 0 <= x_v66_R <= 1
 0 <= x_v67_melik <= 1
 0 <= x_v67_okul <= 1
 0 <= x_v67_R <= 1
 0 <= x_v68_melik <= 1
 0 <= x_v68_okul <= 1
 0 <= x_v68_R <= 1
 0 <= x_v69_melik <= 1
 0 <= x_v69_okul <= 1
 0 <= x_v69_R <= 1
 0 <= x_v70_melik <= 1
 0 <= x_v70_okul <= 1
 0 <= x_v70_R <= 1
 0 <= x_v71_melik <= 1
 0 <= x_v71_okul <= 1
 0 <= x_v71_R <= 1
 0 <= x_v72_melik <= 1
 0 <= x_v72_okul <= 1
 0 <= x_v72_R <= 1
 0 <= x_v73_melik <= 1
 0 <= x_v73_okul <= 1
 0 <= x_v73_R <= 1
 0 <= x_v74_melik <= 1
 0 <= x_v74_okul <= 1
 0 <= x_v74_R <= 1
 0 <= x_v75_melik <= 1
 0 <= x_v75_okul <= 1
 0 <= x_v75_R <= 1
 0 <= x_v76_melik <= 1
 0 <= x_v76_okul <= 1
 0 <= x_v76_R <= 1
 0 <= x_v77_melik <= 1
 0 <= x_v77_okul <= 1
 0 <= x_v77_R <= 1
 0 <= x_v78_melik <= 1
 0 <= x_v78_okul <= 1
 0 <= x_v78_R <= 1
 0 <= x_v79_melik <= 1
 0 <= x_v79_okul <= 1
 0 <= x_v79_R <= 1
 0 <= x_v80_melik <= 1
 0 <= x_v80_okul <= 1
 0 <= x_v80_R <= 1
 0 <= x_v81_melik <= 1
 0 <= x_v81_okul <= 1
 0 <= x_v81_R <= 1
 0 <= x_v82_melik <= 1
 0 <= x_v82_okul <= 1
 0 <= x_v82_R <= 1
 0 <= x_v83_melik <= 1
 0 <= x_v83_okul <= 1
 0 <= x_v83_R <= 1
 0 <= x_v84_melik <= 1
 0 <= x_v84_okul <= 1
 0 <= x_v84_R <= 1
 0 <= x_v85_melik <= 1
 0 <= x_v85_okul <= 1
 0 <= x_v85_R <= 1
 0 <= x_v86_melik <= 1
 0 <= x_v86_okul <= 1
 0 <= x_v86_R <= 1
 0 <= x_v87_melik <= 1
 0 <= x_v87_okul <= 1
 0 <= x_v87_R <= 1
 0 <= x_v88_melik <= 1
 0 <= x_v88_okul <= 1
 0 <= x_v88_R <= 1
 0 <= x_v89_melik <= 1
 0 <= x_v89_okul <= 1
 0 <= x_v89_R <= 1
 0 <= x_v90_melik <= 1
 0 <= x_v90_okul <= 1
 0 <= x_v90_R <= 1
 0 <= x_v91_melik <= 1
 0 <= x_v91_okul <= 1
 0 <= x_v91_R <= 1
 0 <= x_v92_melik <= 1
 0 <= x_v92_okul <= 1
 0 <= x_v92_R <= 1
 0 <= x_v93_melik <= 1
 0 <= x_v93_okul <= 1
 0 <= x_v93_R <= 1
 0 <= x_v94_melik <= 1
 0 <= x_v94_okul <= 1
 0 <= x_v94_R <= 1
 0 <= x_v95_melik <= 1
 0 <= x_v95_okul <= 1
 0 <= x_v95_R <= 1
 0 <= x_v96_melik <= 1
 0 <= x_v96_okul <= 1
 0 <= x_v96_R <= 1
 0 <= x_v97_melik <= 1
 0 <= x_v97_okul <= 1
 0 <= x_v97_R <= 1
 0 <= x_v98_melik <= 1
 0 <= x_v98_okul <= 1
 0 <= x_v98_R <= 1
 0 <= x_v99_melik <= 1
 0 <= x_v99_okul <= 1
 0 <= x_v99_R <= 1
 0 <= x_v100_melik <= 1
 0 <= x_v100_okul <= 1
 0 <= x_v100_R <= 1
 0 <= u_melik_0 <= 1
 0 <= u_melik_1 <= 1
 0 <= u_melik_2 <= 1
 0 <= u_melik_3 <= 1
 0 <= u_melik_4 <= 1
 0 <= u_melik_5 <= 1
 0 <= u_melik_6 <= 1
 0 <= u_melik_7 <= 1
 0 <= u_melik_8 <= 1
 0 <= u_melik_9 <= 1
 0 <= u_melik_10 <= 1
 0 <= u_melik_11 <= 1
 0 <= u_melik_12 <= 1
 0 <= u_melik_13 <= 1
 0 <= u_melik_14 <= 1
 0 <= u_melik_15 <= 1
 0 <= u_melik_16 <= 1
 0 <= u_melik_17 <= 1
 0 <= u_melik_18 <= 1
 0 <= u_melik_19 <= 1
 0 <= u_melik_20 <= 1
 0 <= u_melik_21 <= 1
 0 <= u_melik_22 <= 1
 0 <= u_melik_23 <= 1
 0 <= u_melik_24 <= 1
 0 <= u_melik_25 <= 1
 0 <= u_melik_26 <= 1
 0 <= u_melik_27 <= 1
 0 <= u_melik_28 <= 1
 0 <= u_melik_29 <= 1
 0 <= u_melik_30 <= 1
 0 <= u_melik_31 <= 1
 0 <= u_melik_32 <= 1
 0 <= u_melik_33 <= 1
 0 <= u_melik_34 <= 1
 0 <= u_melik_35 <= 1
 0 <= u_melik_36 <= 1
 0 <= u_melik_37 <= 1
 0 <= u_melik_38 <= 1
 0 <= u_melik_39 <= 1
 0 <= u_melik_40 <= 1
 0 <= u_melik_41 <= 1
 0 <= u_melik_42 <= 1
 0 <= u_melik_43 <= 1
 0 <= u_melik_44 <= 1
 0 <= u_melik_45 <= 1
 0 <= u_melik_46 <= 1
 0 <= u_melik_47 <= 1
 0 <= u_melik_48 <= 1
 0 <= u_melik_49 <= 1
 0 <= u_melik_50 <= 1
 0 <= u_melik_51 <= 1
 0 <= u_melik_52 <= 1
 0 <= u_melik_53 <= 1
 0 <= u_melik_54 <= 1
 0 <= u_melik_55 <= 1
 0 <= u_melik_56 <= 1
 0 <= u_melik_57 <= 1
 0 <= u_melik_58 <= 1
 0 <= u_melik_59 <= 1
 0 <= u_melik_60 <= 1
 0 <= u_melik_61 <= 1
 0 <= u_melik_62 <= 1
 0 <= u_melik_63 <= 1
 0 <= u_melik_64 <= 1
 0 <= u_melik_65 <= 1
 0 <= u_melik_66 <= 1
 0 <= u_melik_67 <= 1
 0 <= u_melik_68 <= 1
 0 <= u_melik_69 <= 1
 0 <= u_melik_70 <= 1
 0 <= u_melik_71 <= 1
 0 <= u_melik_72 <= 1
 0 <= u_melik_73 <= 1
 0 <= u_melik_74 <= 1
 0 <= u_melik_75 <= 1
 0 <= u_melik_76 <= 1
 0 <= u_melik_77 <= 1
 0 <= u_melik_78 <= 1
 0 <= u_melik_79 <= 1
 0 <= u_melik_80 <= 1
 0 <= u_okul_0 <= 1
 0 <= u_okul_1 <= 1
 0 <= u_okul_2 <= 1
 0 <= u_okul_3 <= 1
 0 <= u_okul_4 <= 1
 0 <= u_okul_5 <= 1
 0 <= u_okul_6 <= 1
 0 <= u_okul_7 <= 1
 0 <= u_okul_8 <= 1
 0 <= u_okul_9 <= 1
 0 <= u_okul_10 <= 1
 0 <= u_okul_11 <= 1
 0 <= u_okul_12 <= 1
 0 <= u_okul_13 <= 1
 0 <= u_okul_14 <= 1
 0 <= u_okul_15 <= 1
 0 <= u_okul_16 <= 1
 0 <= u_okul_17 <= 1
 0 <= u_okul_18 <= 1
 0 <= u_okul_19 <= 1
 0 <= u_okul_20 <= 1
 0 <= u_okul_21 <= 1
 0 <= u_okul_22 <= 1
 0 <= u_okul_23 <= 1
 0 <= u_okul_24 <= 1
 0 <= u_okul_25 <= 1
 0 <= u_okul_26 <= 1
 0 <= u_okul_27 <= 1
 0 <= u_okul_28 <= 1
 0 <= u_okul_29 <= 1
 0 <= u_okul_30 <= 1
 0 <= u_okul_31 <= 1
 0 <= u_okul_32 <= 1
 0 <= u_okul_33 <= 1
 0 <= u_okul_34 <= 1
 0 <= u_okul_35 <= 1
 0 <= u_okul_36 <= 1
 0 <= u_okul_37 <= 1
 0 <= u_okul_38 <= 1
 0 <= u_okul_39 <= 1
 0 <= u_okul_40 <= 1
 0 <= u_okul_41 <= 1
 0 <= u_okul_42 <= 1
 0 <= u_okul_43 <= 1
 0 <= u_okul_44 <= 1
 0 <= u_okul_45 <= 1
 0 <= u_okul_46 <= 1
 0 <= u_okul_47 <= 1
 0 <= u_okul_48 <= 1
 0 <= u_okul_49 <= 1
 0 <= u_okul_50 <= 1
 0 <= u_okul_51 <= 1
 0 <= u_okul_52 <= 1
 0 <= u_okul_53 <= 1
 0 <= u_okul_54 <= 1
 0 <= u_okul_55 <= 1
 0 <= u_okul_56 <= 1
 0 <= u_okul_57 <= 1
 0 <= u_okul_58 <= 1
 0 <= u_okul_59 <= 1
 0 <= u_okul_60 <= 1
 0 <= u_okul_61 <= 1
 0 <= u_okul_62 <= 1
 0 <= u_okul_63 <= 1
 0 <= u_okul_64 <= 1
 0 <= u_okul_65 <= 1
 0 <= u_okul_66 <= 1
 0 <= u_okul_67 <= 1
 0 <= u_okul_68 <= 1
 0 <= u_okul_69 <= 1
 0 <= u_okul_70 <= 1
 0 <= u_okul_71 <= 1
 0 <= y_v1_melik_38 <= 1
 0 <= y_v1_melik_43 <= 1
 0 <= y_v1_melik_70 <= 1
 0 <= y_v1_okul_5 <= 1
 0 <= y_v1_okul_15 <= 1
 0 <= y_v1_okul_26 <= 1
 0 <= y_v1_okul_29 <= 1
 0 <= y_v1_okul_35 <= 1
 0 <= y_v1_okul_36 <= 1
 0 <= y_v1_okul_46 <= 1
 0 <= y_v1_okul_55 <= 1
 0 <= y_v2_melik_0 <= 1
 0 <= y_v2_melik_38 <= 1
 0 <= y_v2_melik_43 <= 1
 0 <= y_v2_melik_65 <= 1
 0 <= y_v2_melik_70 <= 1
 0 <= y_v2_okul_5 <= 1
 0 <= y_v2_okul_15 <= 1
 0 <= y_v2_okul_18 <= 1
 0 <= y_v2_okul_21 <= 1
 0 <= y_v2_okul_26 <= 1
 0 <= y_v2_okul_29 <= 1
 0 <= y_v2_okul_35 <= 1
 0 <= y_v2_okul_36 <= 1
 0 <= y_v2_okul_46 <= 1
 0 <= y_v2_okul_55 <= 1
 0 <= y_v2_okul_56 <= 1
 0 <= y_v3_melik_0 <= 1
 0 <= y_v3_melik_20 <= 1
 0 <= y_v3_melik_38 <= 1
 0 <= y_v3_melik_43 <= 1
 0 <= y_v3_melik_57 <= 1
 0 <= y_v3_melik_65 <= 1
 0 <= y_v3_okul_5 <= 1
 0 <= y_v3_okul_14 <= 1
 0 <= y_v3_okul_15 <= 1
 0 <= y_v3_okul_18 <= 1
 0 <= y_v3_okul_21 <= 1
 0 <= y_v3_okul_26 <= 1
 0 <= y_v3_okul_29 <= 1
 0 <= y_v3_okul_33 <= 1
 0 <= y_v3_okul_35 <= 1
 0 <= y_v3_okul_36 <= 1
 0 <= y_v3_okul_46 <= 1
 0 <= y_v3_okul_55 <= 1
 0 <= y_v3_okul_56 <= 1
 0 <= y_v3_okul_67 <= 1
 0 <= y_v4_melik_0 <= 1
 0 <= y_v4_melik_18 <= 1
 0 <= y_v4_melik_20 <= 1
 0 <= y_v4_melik_43 <= 1
 0 <= y_v4_melik_48 <= 1
 0 <= y_v4_melik_57 <= 1
 0 <= y_v4_okul_5 <= 1
 0 <= y_v4_okul_14 <= 1
 0 <= y_v4_okul_15 <= 1
 0 <= y_v4_okul_18 <= 1
 0 <= y_v4_okul_21 <= 1
 0 <= y_v4_okul_26 <= 1
 0 <= y_v4_okul_29 <= 1
 0 <= y_v4_okul_30 <= 1
 0 <= y_v4_okul_33 <= 1
 0 <= y_v4_okul_35 <= 1
 0 <= y_v4_okul_36 <= 1
 0 <= y_v4_okul_46 <= 1
 0 <= y_v4_okul_47 <= 1
 0 <= y_v4_okul_55 <= 1
 0 <= y_v4_okul_56 <= 1
 0 <= y_v4_okul_58 <= 1
 0 <= y_v4_okul_67 <= 1
 0 <= y_v5_melik_0 <= 1
 0 <= y_v5_melik_18 <= 1
 0 <= y_v5_melik_20 <= 1
 0 <= y_v5_melik_42 <= 1
 0 <= y_v5_melik_48 <= 1
 0 <= y_v5_melik_67 <= 1
 0 <= y_v5_okul_5 <= 1
 0 <= y_v5_okul_9 <= 1
 0 <= y_v5_okul_14 <= 1
 0 <= y_v5_okul_15 <= 1
 0 <= y_v5_okul_18 <= 1
 0 <= y_v5_okul_21 <= 1
 0 <= y_v5_okul_22 <= 1
 0 <= y_v5_okul_26 <= 1
 0 <= y_v5_okul_29 <= 1
 0 <= y_v5_okul_30 <= 1
 0 <= y_v5_okul_33 <= 1
 0 <= y_v5_okul_35 <= 1
 0 <= y_v5_okul_46 <= 1
 0 <= y_v5_okul_47 <= 1
 0 <= y_v5_okul_55 <= 1
 0 <= y_v5_okul_56 <= 1
 0 <= y_v5_okul_58 <= 1
 0 <= y_v5_okul_67 <= 1
 0 <= y_v5_okul_71 <= 1
 0 <= y_v6_melik_19 <= 1
 0 <= y_v6_melik_20 <= 1
 0 <= y_v6_melik_30 <= 1
 0 <= y_v6_melik_42 <= 1
 0 <= y_v6_melik_48 <= 1
 0 <= y_v6_melik_67 <= 1
 0 <= y_v6_okul_1 <= 1
 0 <= y_v6_okul_5 <= 1
 0 <= y_v6_okul_9 <= 1
 0 <= y_v6_okul_14 <= 1
 0 <= y_v6_okul_18 <= 1
 0 <= y_v6_okul_21 <= 1
 0 <= y_v6_okul_22 <= 1
 0 <= y_v6_okul_29 <= 1
 0 <= y_v6_okul_30 <= 1
 0 <= y_v6_okul_33 <= 1
 0 <= y_v6_okul_35 <= 1
 0 <= y_v6_okul_40 <= 1
 0 <= y_v6_okul_47 <= 1
 0 <= y_v6_okul_55 <= 1
 0 <= y_v6_okul_56 <= 1
 0 <= y_v6_okul_58 <= 1
 0 <= y_v6_okul_60 <= 1
 0 <= y_v6_okul_67 <= 1
 0 <= y_v6_okul_71 <= 1
 0 <= y_v7_melik_19 <= 1
 0 <= y_v7_melik_30 <= 1
 0 <= y_v7_melik_46 <= 1
 0 <= y_v7_melik_48 <= 1
 0 <= y_v7_melik_67 <= 1
 0 <= y_v7_melik_76 <= 1
 0 <= y_v7_okul_1 <= 1
 0 <= y_v7_okul_5 <= 1
 0 <= y_v7_okul_9 <= 1
 0 <= y_v7_okul_14 <= 1
 0 <= y_v7_okul_18 <= 1
 0 <= y_v7_okul_21 <= 1
 0 <= y_v7_okul_22 <= 1
 0 <= y_v7_okul_30 <= 1
 0 <= y_v7_okul_33 <= 1
 0 <= y_v7_okul_40 <= 1
 0 <= y_v7_okul_47 <= 1
 0 <= y_v7_okul_55 <= 1
 0 <= y_v7_okul_58 <= 1
 0 <= y_v7_okul_60 <= 1
 0 <= y_v7_okul_65 <= 1
 0 <= y_v7_okul_67 <= 1
 0 <= y_v7_okul_71 <= 1
 0 <= y_v8_melik_19 <= 1
 0 <= y_v8_melik_29 <= 1
 0 <= y_v8_melik_46 <= 1
 0 <= y_v8_melik_67 <= 1
 0 <= y_v8_melik_76 <= 1
 0 <= y_v8_melik_77 <= 1
 0 <= y_v8_okul_1 <= 1
 0 <= y_v8_okul_9 <= 1
 0 <= y_v8_okul_14 <= 1
 0 <= y_v8_okul_18 <= 1
 0 <= y_v8_okul_21 <= 1
 0 <= y_v8_okul_22 <= 1
 0 <= y_v8_okul_30 <= 1
 0 <= y_v8_okul_33 <= 1
 0 <= y_v8_okul_40 <= 1
 0 <= y_v8_okul_47 <= 1
 0 <= y_v8_okul_58 <= 1
 0 <= y_v8_okul_60 <= 1
 0 <= y_v8_okul_65 <= 1
 0 <= y_v8_okul_71 <= 1
 0 <= y_v9_melik_19 <= 1
 0 <= y_v9_melik_29 <= 1
 0 <= y_v9_melik_60 <= 1
 0 <= y_v9_melik_76 <= 1
 0 <= y_v9_melik_77 <= 1
 0 <= y_v9_okul_1 <= 1
 0 <= y_v9_okul_9 <= 1
 0 <= y_v9_okul_14 <= 1
 0 <= y_v9_okul_22 <= 1
 0 <= y_v9_okul_30 <= 1
 0 <= y_v9_okul_33 <= 1
 0 <= y_v9_okul_40 <= 1
 0 <= y_v9_okul_47 <= 1
 0 <= y_v9_okul_60 <= 1
 0 <= y_v9_okul_65 <= 1
 0 <= y_v9_okul_71 <= 1
 0 <= y_v10_melik_60 <= 1
 0 <= y_v10_melik_76 <= 1
 0 <= y_v10_melik_77 <= 1
 0 <= y_v10_okul_1 <= 1
 0 <= y_v10_okul_9 <= 1
 0 <= y_v10_okul_22 <= 1
 0 <= y_v10_okul_30 <= 1
 0 <= y_v10_okul_40 <= 1
 0 <= y_v10_okul_47 <= 1
 0 <= y_v10_okul_60 <= 1
 0 <= y_v10_okul_65 <= 1
 0 <= y_v11_melik_38 <= 1
 0 <= y_v11_melik_43 <= 1
 0 <= y_v11_melik_61 <= 1
 0 <= y_v11_melik_65 <= 1
 0 <= y_v11_melik_70 <= 1
 0 <= y_v11_okul_5 <= 1
 0 <= y_v11_okul_15 <= 1
 0 <= y_v11_okul_16 <= 1
 0 <= y_v11_okul_26 <= 1
 0 <= y_v11_okul_29 <= 1
 0 <= y_v11_okul_35 <= 1
 0 <= y_v11_okul_36 <= 1
 0 <= y_v11_okul_46 <= 1
 0 <= y_v11_okul_55 <= 1
 0 <= y_v11_okul_56 <= 1
 0 <= y_v11_okul_57 <= 1
 0 <= y_v12_melik_0 <= 1
 0 <= y_v12_melik_38 <= 1
 0 <= y_v12_melik_43 <= 1
 0 <= y_v12_melik_55 <= 1
 0 <= y_v12_melik_57 <= 1
 0 <= y_v12_melik_61 <= 1
 0 <= y_v12_melik_65 <= 1
 0 <= y_v12_melik_70 <= 1
 0 <= y_v12_okul_5 <= 1
 0 <= y_v12_okul_15 <= 1
 0 <= y_v12_okul_16 <= 1
 0 <= y_v12_okul_18 <= 1
 0 <= y_v12_okul_21 <= 1
 0 <= y_v12_okul_26 <= 1
 0 <= y_v12_okul_29 <= 1
 0 <= y_v12_okul_35 <= 1
 0 <= y_v12_okul_36 <= 1
 0 <= y_v12_okul_46 <= 1
 0 <= y_v12_okul_55 <= 1
 0 <= y_v12_okul_56 <= 1
 0 <= y_v12_okul_57 <= 1
 0 <= y_v12_okul_67 <= 1
 0 <= y_v12_okul_69 <= 1
 0 <= y_v13_melik_0 <= 1
 0 <= y_v13_melik_18 <= 1
 0 <= y_v13_melik_20 <= 1
 0 <= y_v13_melik_38 <= 1
 0 <= y_v13_melik_43 <= 1
 0 <= y_v13_melik_55 <= 1
 0 <= y_v13_melik_57 <= 1
 0 <= y_v13_melik_65 <= 1
 0 <= y_v13_melik_70 <= 1
 0 <= y_v13_melik_72 <= 1
 0 <= y_v13_okul_2 <= 1
 0 <= y_v13_okul_5 <= 1
 0 <= y_v13_okul_14 <= 1
 0 <= y_v13_okul_15 <= 1
 0 <= y_v13_okul_16 <= 1
 0 <= y_v13_okul_18 <= 1
 0 <= y_v13_okul_21 <= 1
 0 <= y_v13_okul_26 <= 1
 0 <= y_v13_okul_29 <= 1
 0 <= y_v13_okul_33 <= 1
 0 <= y_v13_okul_35 <= 1
 0 <= y_v13_okul_36 <= 1
 0 <= y_v13_okul_46 <= 1
 0 <= y_v13_okul_55 <= 1
 0 <= y_v13_okul_56 <= 1
 0 <= y_v13_okul_57 <= 1
 0 <= y_v13_okul_58 <= 1
 0 <= y_v13_okul_67 <= 1
 0 <= y_v13_okul_69 <= 1
 0 <= y_v14_melik_0 <= 1
 0 <= y_v14_melik_18 <= 1
 0 <= y_v14_melik_20 <= 1
 0 <= y_v14_melik_42 <= 1
 0 <= y_v14_melik_43 <= 1
 0 <= y_v14_melik_48 <= 1
 0 <= y_v14_melik_53 <= 1
 0 <= y_v14_melik_57 <= 1
 0 <= y_v14_melik_65 <= 1
 0 <= y_v14_melik_72 <= 1
 0 <= y_v14_okul_2 <= 1
 0 <= y_v14_okul_5 <= 1
 0 <= y_v14_okul_14 <= 1
 0 <= y_v14_okul_15 <= 1
 0 <= y_v14_okul_16 <= 1
 0 <= y_v14_okul_18 <= 1
 0 <= y_v14_okul_21 <= 1
 0 <= y_v14_okul_26 <= 1
 0 <= y_v14_okul_29 <= 1
 0 <= y_v14_okul_30 <= 1
 0 <= y_v14_okul_33 <= 1
 0 <= y_v14_okul_35 <= 1
 0 <= y_v14_okul_36 <= 1
 0 <= y_v14_okul_46 <= 1
 0 <= y_v14_okul_47 <= 1
 0 <= y_v14_okul_53 <= 1
 0 <= y_v14_okul_55 <= 1
 0 <= y_v14_okul_56 <= 1
 0 <= y_v14_okul_57 <= 1
 0 <= y_v14_okul_58 <= 1
 0 <= y_v14_okul_67 <= 1
 0 <= y_v14_okul_69 <= 1
 0 <= y_v14_okul_71 <= 1
 0 <= y_v15_melik_0 <= 1
 0 <= y_v15_melik_18 <= 1
 0 <= y_v15_melik_20 <= 1
 0 <= y_v15_melik_30 <= 1
 0 <= y_v15_melik_42 <= 1
 0 <= y_v15_melik_48 <= 1
 0 <= y_v15_melik_53 <= 1
 0 <= y_v15_melik_57 <= 1
 0 <= y_v15_melik_67 <= 1
 0 <= y_v15_melik_74 <= 1
 0 <= y_v15_okul_2 <= 1
 0 <= y_v15_okul_5 <= 1
 0 <= y_v15_okul_9 <= 1
 0 <= y_v15_okul_14 <= 1
 0 <= y_v15_okul_15 <= 1
 0 <= y_v15_okul_18 <= 1
 0 <= y_v15_okul_21 <= 1
 0 <= y_v15_okul_22 <= 1
 0 <= y_v15_okul_26 <= 1
 0 <= y_v15_okul_29 <= 1
 0 <= y_v15_okul_30 <= 1
 0 <= y_v15_okul_33 <= 1
 0 <= y_v15_okul_34 <= 1
 0 <= y_v15_okul_35 <= 1
 0 <= y_v15_okul_36 <= 1
 0 <= y_v15_okul_40 <= 1
 0 <= y_v15_okul_46 <= 1
 0 <= y_v15_okul_47 <= 1
 0 <= y_v15_okul_53 <= 1
 0 <= y_v15_okul_55 <= 1
 0 <= y_v15_okul_56 <= 1
 0 <= y_v15_okul_57 <= 1
 0 <= y_v15_okul_58 <= 1
 0 <= y_v15_okul_67 <= 1
 0 <= y_v15_okul_69 <= 1
 0 <= y_v15_okul_71 <= 1
 0 <= y_v16_melik_18 <= 1
 0 <= y_v16_melik_19 <= 1
 0 <= y_v16_melik_20 <= 1
 0 <= y_v16_melik_30 <= 1
 0 <= y_v16_melik_42 <= 1
 0 <= y_v16_melik_45 <= 1
 0 <= y_v16_melik_46 <= 1
 0 <= y_v16_melik_48 <= 1
 0 <= y_v16_melik_67 <= 1
 0 <= y_v16_melik_74 <= 1
 0 <= y_v16_okul_1 <= 1
 0 <= y_v16_okul_2 <= 1
 0 <= y_v16_okul_5 <= 1
 0 <= y_v16_okul_9 <= 1
 0 <= y_v16_okul_14 <= 1
 0 <= y_v16_okul_18 <= 1
 0 <= y_v16_okul_19 <= 1
 0 <= y_v16_okul_21 <= 1
 0 <= y_v16_okul_22 <= 1
 0 <= y_v16_okul_29 <= 1
 0 <= y_v16_okul_30 <= 1
 0 <= y_v16_okul_33 <= 1
 0 <= y_v16_okul_34 <= 1
 0 <= y_v16_okul_35 <= 1
 0 <= y_v16_okul_40 <= 1
 0 <= y_v16_okul_46 <= 1
 0 <= y_v16_okul_47 <= 1
 0 <= y_v16_okul_53 <= 1
 0 <= y_v16_okul_55 <= 1
 0 <= y_v16_okul_56 <= 1
 0 <= y_v16_okul_58 <= 1
 0 <= y_v16_okul_60 <= 1
 0 <= y_v16_okul_65 <= 1
 0 <= y_v16_okul_67 <= 1
 0 <= y_v16_okul_69 <= 1
 0 <= y_v16_okul_71 <= 1
 0 <= y_v17_melik_19 <= 1
 0 <= y_v17_melik_29 <= 1
 0 <= y_v17_melik_30 <= 1
 0 <= y_v17_melik_42 <= 1
 0 <= y_v17_melik_45 <= 1
 0 <= y_v17_melik_46 <= 1
 0 <= y_v17_melik_48 <= 1
 0 <= y_v17_melik_66 <= 1
 0 <= y_v17_melik_67 <= 1
 0 <= y_v17_melik_76 <= 1
 0 <= y_v17_okul_1 <= 1
 0 <= y_v17_okul_2 <= 1
 0 <= y_v17_okul_5 <= 1
 0 <= y_v17_okul_9 <= 1
 0 <= y_v17_okul_14 <= 1
 0 <= y_v17_okul_18 <= 1
 0 <= y_v17_okul_19 <= 1
 0 <= y_v17_okul_21 <= 1
 0 <= y_v17_okul_22 <= 1
 0 <= y_v17_okul_30 <= 1
 0 <= y_v17_okul_33 <= 1
 0 <= y_v17_okul_34 <= 1
 0 <= y_v17_okul_40 <= 1
 0 <= y_v17_okul_47 <= 1
 0 <= y_v17_okul_53 <= 1
 0 <= y_v17_okul_55 <= 1
 0 <= y_v17_okul_56 <= 1
 0 <= y_v17_okul_58 <= 1
 0 <= y_v17_okul_60 <= 1
 0 <= y_v17_okul_65 <= 1
 0 <= y_v17_okul_66 <= 1
 0 <= y_v17_okul_67 <= 1
 0 <= y_v17_okul_71 <= 1
 0 <= y_v18_melik_19 <= 1
 0 <= y_v18_melik_29 <= 1
 0 <= y_v18_melik_30 <= 1
 0 <= y_v18_melik_40 <= 1
 0 <= y_v18_melik_46 <= 1
 0 <= y_v18_melik_60 <= 1
 0 <= y_v18_melik_66 <= 1
 0 <= y_v18_melik_67 <= 1
 0 <= y_v18_melik_76 <= 1
 0 <= y_v18_melik_77 <= 1
 0 <= y_v18_okul_1 <= 1
 0 <= y_v18_okul_9 <= 1
 0 <= y_v18_okul_14 <= 1
 0 <= y_v18_okul_18 <= 1
 0 <= y_v18_okul_19 <= 1
 0 <= y_v18_okul_21 <= 1
 0 <= y_v18_okul_22 <= 1
 0 <= y_v18_okul_30 <= 1
 0 <= y_v18_okul_33 <= 1
 0 <= y_v18_okul_34 <= 1
 0 <= y_v18_okul_40 <= 1
 0 <= y_v18_okul_47 <= 1
 0 <= y_v18_okul_53 <= 1
 0 <= y_v18_okul_58 <= 1
 0 <= y_v18_okul_60 <= 1
 0 <= y_v18_okul_65 <= 1
 0 <= y_v18_okul_66 <= 1
 0 <= y_v18_okul_67 <= 1
 0 <= y_v18_okul_71 <= 1
 0 <= y_v19_melik_19 <= 1
 0 <= y_v19_melik_29 <= 1
 0 <= y_v19_melik_31 <= 1
 0 <= y_v19_melik_40 <= 1
 0 <= y_v19_melik_46 <= 1
 0 <= y_v19_melik_60 <= 1
 0 <= y_v19_melik_76 <= 1
 0 <= y_v19_melik_77 <= 1
 0 <= y_v19_okul_1 <= 1
 0 <= y_v19_okul_9 <= 1
 0 <= y_v19_okul_14 <= 1
 0 <= y_v19_okul_19 <= 1
 0 <= y_v19_okul_22 <= 1
 0 <= y_v19_okul_30 <= 1
 0 <= y_v19_okul_33 <= 1
 0 <= y_v19_okul_34 <= 1
 0 <= y_v19_okul_40 <= 1
 0 <= y_v19_okul_47 <= 1
 0 <= y_v19_okul_58 <= 1
 0 <= y_v19_okul_60 <= 1
 0 <= y_v19_okul_65 <= 1
 0 <= y_v19_okul_66 <= 1
 0 <= y_v19_okul_71 <= 1
 0 <= y_v20_melik_29 <= 1
 0 <= y_v20_melik_31 <= 1
 0 <= y_v20_melik_60 <= 1
 0 <= y_v20_melik_76 <= 1
 0 <= y_v20_melik_77 <= 1
 0 <= y_v20_okul_1 <= 1
 0 <= y_v20_okul_9 <= 1
 0 <= y_v20_okul_19 <= 1
 0 <= y_v20_okul_22 <= 1
 0 <= y_v20_okul_30 <= 1
 0 <= y_v20_okul_40 <= 1
 0 <= y_v20_okul_47 <= 1
 0 <= y_v20_okul_60 <= 1
 0 <= y_v20_okul_65 <= 1
 0 <= y_v20_okul_66 <= 1
 0 <= y_v20_okul_71 <= 1
 0 <= y_v21_melik_22 <= 1
 0 <= y_v21_melik_38 <= 1
 0 <= y_v21_melik_55 <= 1
 0 <= y_v21_melik_61 <= 1
 0 <= y_v21_melik_65 <= 1
 0 <= y_v21_melik_70 <= 1
 0 <= y_v21_okul_5 <= 1
 0 <= y_v21_okul_15 <= 1
 0 <= y_v21_okul_16 <= 1
 0 <= y_v21_okul_26 <= 1
 0 <= y_v21_okul_29 <= 1
 0 <= y_v21_okul_35 <= 1
 0 <= y_v21_okul_36 <= 1
 0 <= y_v21_okul_46 <= 1
 0 <= y_v21_okul_51 <= 1
 0 <= y_v21_okul_55 <= 1
 0 <= y_v21_okul_56 <= 1
 0 <= y_v21_okul_57 <= 1
 0 <= y_v21_okul_62 <= 1
 0 <= y_v21_okul_69 <= 1
 0 <= y_v22_melik_22 <= 1
 0 <= y_v22_melik_27 <= 1
 0 <= y_v22_melik_38 <= 1
 0 <= y_v22_melik_43 <= 1
 0 <= y_v22_melik_55 <= 1
 0 <= y_v22_melik_57 <= 1
 0 <= y_v22_melik_61 <= 1
 0 <= y_v22_melik_65 <= 1
 0 <= y_v22_melik_70 <= 1
 0 <= y_v22_melik_72 <= 1
 0 <= y_v22_okul_0 <= 1
 0 <= y_v22_okul_2 <= 1
 0 <= y_v22_okul_5 <= 1
 0 <= y_v22_okul_15 <= 1
 0 <= y_v22_okul_16 <= 1
 0 <= y_v22_okul_18 <= 1
 0 <= y_v22_okul_21 <= 1
 0 <= y_v22_okul_26 <= 1
 0 <= y_v22_okul_29 <= 1
 0 <= y_v22_okul_35 <= 1
 0 <= y_v22_okul_36 <= 1
 0 <= y_v22_okul_46 <= 1
 0 <= y_v22_okul_51 <= 1
 0 <= y_v22_okul_55 <= 1
 0 <= y_v22_okul_56 <= 1
 0 <= y_v22_okul_57 <= 1
 0 <= y_v22_okul_62 <= 1
 0 <= y_v22_okul_67 <= 1
 0 <= y_v22_okul_69 <= 1
 0 <= y_v23_melik_0 <= 1
 0 <= y_v23_melik_18 <= 1
 0 <= y_v23_melik_27 <= 1
 0 <= y_v23_melik_43 <= 1
 0 <= y_v23_melik_53 <= 1
 0 <= y_v23_melik_55 <= 1
 0 <= y_v23_melik_56 <= 1
 0 <= y_v23_melik_57 <= 1
 0 <= y_v23_melik_61 <= 1
 0 <= y_v23_melik_65 <= 1
 0 <= y_v23_melik_70 <= 1
 0 <= y_v23_melik_72 <= 1
 0 <= y_v23_okul_0 <= 1
 0 <= y_v23_okul_2 <= 1
 0 <= y_v23_okul_5 <= 1
 0 <= y_v23_okul_14 <= 1
 0 <= y_v23_okul_15 <= 1
 0 <= y_v23_okul_16 <= 1
 0 <= y_v23_okul_18 <= 1
 0 <= y_v23_okul_21 <= 1
 0 <= y_v23_okul_26 <= 1
 0 <= y_v23_okul_29 <= 1
 0 <= y_v23_okul_33 <= 1
 0 <= y_v23_okul_35 <= 1
 0 <= y_v23_okul_36 <= 1
 0 <= y_v23_okul_46 <= 1
 0 <= y_v23_okul_51 <= 1
 0 <= y_v23_okul_52 <= 1
 0 <= y_v23_okul_53 <= 1
 0 <= y_v23_okul_55 <= 1
 0 <= y_v23_okul_56 <= 1
 0 <= y_v23_okul_57 <= 1
 0 <= y_v23_okul_58 <= 1
 0 <= y_v23_okul_62 <= 1
 0 <= y_v23_okul_67 <= 1
 0 <= y_v23_okul_69 <= 1
 0 <= y_v24_melik_0 <= 1
 0 <= y_v24_melik_18 <= 1
 0 <= y_v24_melik_20 <= 1
 0 <= y_v24_melik_42 <= 1
 0 <= y_v24_melik_51 <= 1
 0 <= y_v24_melik_53 <= 1
 0 <= y_v24_melik_55 <= 1
 0 <= y_v24_melik_56 <= 1
 0 <= y_v24_melik_57 <= 1
 0 <= y_v24_melik_65 <= 1
 0 <= y_v24_melik_72 <= 1
 0 <= y_v24_melik_74 <= 1
 0 <= y_v24_okul_0 <= 1
 0 <= y_v24_okul_2 <= 1
 0 <= y_v24_okul_5 <= 1
 0 <= y_v24_okul_14 <= 1
 0 <= y_v24_okul_15 <= 1
 0 <= y_v24_okul_16 <= 1
 0 <= y_v24_okul_18 <= 1
 0 <= y_v24_okul_21 <= 1
 0 <= y_v24_okul_26 <= 1
 0 <= y_v24_okul_29 <= 1
 0 <= y_v24_okul_30 <= 1
 0 <= y_v24_okul_33 <= 1
 0 <= y_v24_okul_34 <= 1
 0 <= y_v24_okul_35 <= 1
 0 <= y_v24_okul_36 <= 1
 0 <= y_v24_okul_41 <= 1
 0 <= y_v24_okul_46 <= 1
 0 <= y_v24_okul_47 <= 1
 0 <= y_v24_okul_51 <= 1
 0 <= y_v24_okul_52 <= 1
 0 <= y_v24_okul_53 <= 1
 0 <= y_v24_okul_55 <= 1
 0 <= y_v24_okul_56 <= 1
 0 <= y_v24_okul_57 <= 1
 0 <= y_v24_okul_58 <= 1
 0 <= y_v24_okul_62 <= 1
 0 <= y_v24_okul_67 <= 1
 0 <= y_v24_okul_69 <= 1
 0 <= y_v24_okul_71 <= 1
 0 <= y_v25_melik_18 <= 1
 0 <= y_v25_melik_20 <= 1
 0 <= y_v25_melik_30 <= 1
 0 <= y_v25_melik_42 <= 1
 0 <= y_v25_melik_45 <= 1
 0 <= y_v25_melik_48 <= 1
 0 <= y_v25_melik_51 <= 1
 0 <= y_v25_melik_53 <= 1
 0 <= y_v25_melik_57 <= 1
 0 <= y_v25_melik_59 <= 1
 0 <= y_v25_melik_72 <= 1
 0 <= y_v25_melik_74 <= 1
 0 <= y_v25_okul_0 <= 1
 0 <= y_v25_okul_2 <= 1
 0 <= y_v25_okul_5 <= 1
 0 <= y_v25_okul_9 <= 1
 0 <= y_v25_okul_14 <= 1
 0 <= y_v25_okul_15 <= 1
 0 <= y_v25_okul_16 <= 1
 0 <= y_v25_okul_18 <= 1
 0 <= y_v25_okul_19 <= 1
 0 <= y_v25_okul_21 <= 1
 0 <= y_v25_okul_22 <= 1
 0 <= y_v25_okul_26 <= 1
 0 <= y_v25_okul_29 <= 1
 0 <= y_v25_okul_30 <= 1
 0 <= y_v25_okul_33 <= 1
 0 <= y_v25_okul_34 <= 1
 0 <= y_v25_okul_35 <= 1
 0 <= y_v25_okul_36 <= 1
 0 <= y_v25_okul_40 <= 1
 0 <= y_v25_okul_41 <= 1
 0 <= y_v25_okul_46 <= 1
 0 <= y_v25_okul_47 <= 1
 0 <= y_v25_okul_51 <= 1
 0 <= y_v25_okul_52 <= 1
 0 <= y_v25_okul_53 <= 1
 0 <= y_v25_okul_55 <= 1
 0 <= y_v25_okul_56 <= 1
 0 <= y_v25_okul_57 <= 1
 0 <= y_v25_okul_58 <= 1
 0 <= y_v25_okul_67 <= 1
 0 <= y_v25_okul_68 <= 1
 0 <= y_v25_okul_69 <= 1
 0 <= y_v25_okul_71 <= 1
 0 <= y_v26_melik_18 <= 1
 0 <= y_v26_melik_24 <= 1
 0 <= y_v26_melik_30 <= 1
 0 <= y_v26_melik_42 <= 1
 0 <= y_v26_melik_45 <= 1
 0 <= y_v26_melik_46 <= 1
 0 <= y_v26_melik_48 <= 1
 0 <= y_v26_melik_53 <= 1
 0 <= y_v26_melik_59 <= 1
 0 <= y_v26_melik_66 <= 1
 0 <= y_v26_melik_67 <= 1
 0 <= y_v26_melik_74 <= 1
 0 <= y_v26_okul_0 <= 1
 0 <= y_v26_okul_1 <= 1
 0 <= y_v26_okul_2 <= 1
 0 <= y_v26_okul_5 <= 1
 0 <= y_v26_okul_6 <= 1
 0 <= y_v26_okul_9 <= 1
 0 <= y_v26_okul_14 <= 1
 0 <= y_v26_okul_18 <= 1
 0 <= y_v26_okul_19 <= 1
 0 <= y_v26_okul_21 <= 1
 0 <= y_v26_okul_22 <= 1
 0 <= y_v26_okul_29 <= 1
 0 <= y_v26_okul_30 <= 1
 0 <= y_v26_okul_33 <= 1
 0 <= y_v26_okul_34 <= 1
 0 <= y_v26_okul_35 <= 1
 0 <= y_v26_okul_40 <= 1
 0 <= y_v26_okul_41 <= 1
 0 <= y_v26_okul_46 <= 1
 0 <= y_v26_okul_47 <= 1
 0 <= y_v26_okul_52 <= 1
 0 <= y_v26_okul_53 <= 1
 0 <= y_v26_okul_55 <= 1
 0 <= y_v26_okul_56 <= 1
 0 <= y_v26_okul_57 <= 1
 0 <= y_v26_okul_58 <= 1
 0 <= y_v26_okul_60 <= 1
 0 <= y_v26_okul_65 <= 1
 0 <= y_v26_okul_66 <= 1
 0 <= y_v26_okul_67 <= 1
 0 <= y_v26_okul_68 <= 1
 0 <= y_v26_okul_69 <= 1
 0 <= y_v26_okul_71 <= 1
 0 <= y_v27_melik_19 <= 1
 0 <= y_v27_melik_24 <= 1
 0 <= y_v27_melik_29 <= 1
 0 <= y_v27_melik_30 <= 1
 0 <= y_v27_melik_34 <= 1
 0 <= y_v27_melik_40 <= 1
 0 <= y_v27_melik_42 <= 1
 0 <= y_v27_melik_45 <= 1
 0 <= y_v27_melik_46 <= 1
 0 <= y_v27_melik_66 <= 1
 0 <= y_v27_melik_67 <= 1
 0 <= y_v27_melik_74 <= 1
 0 <= y_v27_okul_1 <= 1
 0 <= y_v27_okul_2 <= 1
 0 <= y_v27_okul_3 <= 1
 0 <= y_v27_okul_5 <= 1
 0 <= y_v27_okul_6 <= 1
 0 <= y_v27_okul_9 <= 1
 0 <= y_v27_okul_14 <= 1
 0 <= y_v27_okul_18 <= 1
 0 <= y_v27_okul_19 <= 1
 0 <= y_v27_okul_21 <= 1
 0 <= y_v27_okul_22 <= 1
 0 <= y_v27_okul_30 <= 1
 0 <= y_v27_okul_33 <= 1
 0 <= y_v27_okul_34 <= 1
 0 <= y_v27_okul_40 <= 1
 0 <= y_v27_okul_41 <= 1
 0 <= y_v27_okul_47 <= 1
 0 <= y_v27_okul_52 <= 1
 0 <= y_v27_okul_53 <= 1
 0 <= y_v27_okul_55 <= 1
 0 <= y_v27_okul_56 <= 1
 0 <= y_v27_okul_58 <= 1
 0 <= y_v27_okul_60 <= 1
 0 <= y_v27_okul_65 <= 1
 0 <= y_v27_okul_66 <= 1
 0 <= y_v27_okul_67 <= 1
 0 <= y_v27_okul_68 <= 1
 0 <= y_v27_okul_69 <= 1
 0 <= y_v27_okul_71 <= 1
 0 <= y_v28_melik_19 <= 1
 0 <= y_v28_melik_26 <= 1
 0 <= y_v28_melik_29 <= 1
 0 <= y_v28_melik_30 <= 1
 0 <= y_v28_melik_31 <= 1
 0 <= y_v28_melik_34 <= 1
 0 <= y_v28_melik_40 <= 1
 0 <= y_v28_melik_45 <= 1
 0 <= y_v28_melik_46 <= 1
 0 <= y_v28_melik_60 <= 1
 0 <= y_v28_melik_66 <= 1
 0 <= y_v28_melik_76 <= 1
 0 <= y_v28_okul_1 <= 1
 0 <= y_v28_okul_2 <= 1
 0 <= y_v28_okul_3 <= 1
 0 <= y_v28_okul_6 <= 1
 0 <= y_v28_okul_9 <= 1
 0 <= y_v28_okul_14 <= 1
 0 <= y_v28_okul_18 <= 1
 0 <= y_v28_okul_19 <= 1
 0 <= y_v28_okul_21 <= 1
 0 <= y_v28_okul_22 <= 1
 0 <= y_v28_okul_30 <= 1
 0 <= y_v28_okul_33 <= 1
 0 <= y_v28_okul_34 <= 1
 0 <= y_v28_okul_40 <= 1
 0 <= y_v28_okul_41 <= 1
 0 <= y_v28_okul_47 <= 1
 0 <= y_v28_okul_53 <= 1
 0 <= y_v28_okul_58 <= 1
 0 <= y_v28_okul_60 <= 1
 0 <= y_v28_okul_65 <= 1
 0 <= y_v28_okul_66 <= 1
 0 <= y_v28_okul_67 <= 1
 0 <= y_v28_okul_68 <= 1
 0 <= y_v28_okul_71 <= 1
 0 <= y_v29_melik_26 <= 1
 0 <= y_v29_melik_29 <= 1
 0 <= y_v29_melik_31 <= 1
 0 <= y_v29_melik_40 <= 1
 0 <= y_v29_melik_46 <= 1
 0 <= y_v29_melik_50 <= 1
 0 <= y_v29_melik_60 <= 1
 0 <= y_v29_melik_66 <= 1
 0 <= y_v29_melik_76 <= 1
 0 <= y_v29_melik_77 <= 1
 0 <= y_v29_okul_1 <= 1
 0 <= y_v29_okul_3 <= 1
 0 <= y_v29_okul_6 <= 1
 0 <= y_v29_okul_9 <= 1
 0 <= y_v29_okul_14 <= 1
 0 <= y_v29_okul_19 <= 1
 0 <= y_v29_okul_22 <= 1
 0 <= y_v29_okul_30 <= 1
 0 <= y_v29_okul_33 <= 1
 0 <= y_v29_okul_34 <= 1
 0 <= y_v29_okul_40 <= 1
 0 <= y_v29_okul_47 <= 1
 0 <= y_v29_okul_53 <= 1
 0 <= y_v29_okul_58 <= 1
 0 <= y_v29_okul_60 <= 1
 0 <= y_v29_okul_65 <= 1
 0 <= y_v29_okul_66 <= 1
 0 <= y_v29_okul_68 <= 1
 0 <= y_v29_okul_71 <= 1
 0 <= y_v30_melik_29 <= 1
 0 <= y_v30_melik_31 <= 1
 0 <= y_v30_melik_40 <= 1
 0 <= y_v30_melik_50 <= 1
 0 <= y_v30_melik_60 <= 1
 0 <= y_v30_melik_77 <= 1
 0 <= y_v30_okul_1 <= 1
 0 <= y_v30_okul_3 <= 1
 0 <= y_v30_okul_6 <= 1
 0 <= y_v30_okul_9 <= 1
 0 <= y_v30_okul_19 <= 1
 0 <= y_v30_okul_22 <= 1
 0 <= y_v30_okul_30 <= 1
 0 <= y_v30_okul_34 <= 1
 0 <= y_v30_okul_40 <= 1
 0 <= y_v30_okul_47 <= 1
 0 <= y_v30_okul_60 <= 1
 0 <= y_v30_okul_65 <= 1
 0 <= y_v30_okul_66 <= 1
 0 <= y_v30_okul_71 <= 1
 0 <= y_v31_melik_22 <= 1
 0 <= y_v31_melik_27 <= 1
 0 <= y_v31_melik_55 <= 1
 0 <= y_v31_melik_61 <= 1
 0 <= y_v31_melik_70 <= 1
 0 <= y_v31_melik_79 <= 1
 0 <= y_v31_okul_0 <= 1
 0 <= y_v31_okul_5 <= 1
 0 <= y_v31_okul_7 <= 1
 0 <= y_v31_okul_15 <= 1
 0 <= y_v31_okul_16 <= 1
 0 <= y_v31_okul_26 <= 1
 0 <= y_v31_okul_28 <= 1
 0 <= y_v31_okul_29 <= 1
 0 <= y_v31_okul_35 <= 1
 0 <= y_v31_okul_36 <= 1
 0 <= y_v31_okul_46 <= 1
 0 <= y_v31_okul_51 <= 1
 0 <= y_v31_okul_56 <= 1
 0 <= y_v31_okul_57 <= 1
 0 <= y_v31_okul_62 <= 1
 0 <= y_v31_okul_69 <= 1
 0 <= y_v32_melik_22 <= 1
 0 <= y_v32_melik_27 <= 1
 0 <= y_v32_melik_44 <= 1
 0 <= y_v32_melik_55 <= 1
 0 <= y_v32_melik_56 <= 1
 0 <= y_v32_melik_61 <= 1
 0 <= y_v32_melik_65 <= 1
 0 <= y_v32_melik_70 <= 1
 0 <= y_v32_melik_72 <= 1
 0 <= y_v32_melik_79 <= 1
 0 <= y_v32_okul_0 <= 1
 0 <= y_v32_okul_2 <= 1
 0 <= y_v32_okul_5 <= 1
 0 <= y_v32_okul_7 <= 1
 0 <= y_v32_okul_15 <= 1
 0 <= y_v32_okul_16 <= 1
 0 <= y_v32_okul_21 <= 1
 0 <= y_v32_okul_26 <= 1
 0 <= y_v32_okul_28 <= 1
 0 <= y_v32_okul_29 <= 1
 0 <= y_v32_okul_35 <= 1
 0 <= y_v32_okul_36 <= 1
 0 <= y_v32_okul_37 <= 1
 0 <= y_v32_okul_46 <= 1
 0 <= y_v32_okul_51 <= 1
 0 <= y_v32_okul_52 <= 1
 0 <= y_v32_okul_55 <= 1
 0 <= y_v32_okul_56 <= 1
 0 <= y_v32_okul_57 <= 1
 0 <= y_v32_okul_62 <= 1
 0 <= y_v32_okul_67 <= 1
 0 <= y_v32_okul_69 <= 1
 0 <= y_v33_melik_12 <= 1
 0 <= y_v33_melik_22 <= 1
 0 <= y_v33_melik_27 <= 1
 0 <= y_v33_melik_44 <= 1
 0 <= y_v33_melik_51 <= 1
 0 <= y_v33_melik_53 <= 1
 0 <= y_v33_melik_55 <= 1
 0 <= y_v33_melik_56 <= 1
 0 <= y_v33_melik_57 <= 1
 0 <= y_v33_melik_61 <= 1
 0 <= y_v33_melik_65 <= 1
 0 <= y_v33_melik_72 <= 1
 0 <= y_v33_okul_0 <= 1
 0 <= y_v33_okul_2 <= 1
 0 <= y_v33_okul_5 <= 1
 0 <= y_v33_okul_7 <= 1
 0 <= y_v33_okul_15 <= 1
 0 <= y_v33_okul_16 <= 1
 0 <= y_v33_okul_18 <= 1
 0 <= y_v33_okul_21 <= 1
 0 <= y_v33_okul_26 <= 1
 0 <= y_v33_okul_28 <= 1
 0 <= y_v33_okul_29 <= 1
 0 <= y_v33_okul_33 <= 1
 0 <= y_v33_okul_35 <= 1
 0 <= y_v33_okul_36 <= 1
 0 <= y_v33_okul_37 <= 1
 0 <= y_v33_okul_39 <= 1
 0 <= y_v33_okul_41 <= 1
 0 <= y_v33_okul_46 <= 1
 0 <= y_v33_okul_51 <= 1
 0 <= y_v33_okul_52 <= 1
 0 <= y_v33_okul_53 <= 1
 0 <= y_v33_okul_55 <= 1
 0 <= y_v33_okul_56 <= 1
 0 <= y_v33_okul_57 <= 1
 0 <= y_v33_okul_58 <= 1
 0 <= y_v33_okul_62 <= 1
 0 <= y_v33_okul_67 <= 1
 0 <= y_v33_okul_69 <= 1
 0 <= y_v34_melik_12 <= 1
 0 <= y_v34_melik_18 <= 1
 0 <= y_v34_melik_27 <= 1
 0 <= y_v34_melik_51 <= 1
 0 <= y_v34_melik_53 <= 1
 0 <= y_v34_melik_55 <= 1
 0 <= y_v34_melik_56 <= 1
 0 <= y_v34_melik_57 <= 1
 0 <= y_v34_melik_59 <= 1
 0 <= y_v34_melik_72 <= 1
 0 <= y_v34_melik_74 <= 1
 0 <= y_v34_melik_80 <= 1
 0 <= y_v34_okul_0 <= 1
 0 <= y_v34_okul_2 <= 1
 0 <= y_v34_okul_5 <= 1
 0 <= y_v34_okul_7 <= 1
 0 <= y_v34_okul_14 <= 1
 0 <= y_v34_okul_15 <= 1
 0 <= y_v34_okul_16 <= 1
 0 <= y_v34_okul_18 <= 1
 0 <= y_v34_okul_21 <= 1
 0 <= y_v34_okul_25 <= 1
 0 <= y_v34_okul_26 <= 1
 0 <= y_v34_okul_28 <= 1
 0 <= y_v34_okul_29 <= 1
 0 <= y_v34_okul_30 <= 1
 0 <= y_v34_okul_33 <= 1
 0 <= y_v34_okul_34 <= 1
 0 <= y_v34_okul_35 <= 1
 0 <= y_v34_okul_36 <= 1
 0 <= y_v34_okul_37 <= 1
 0 <= y_v34_okul_39 <= 1
 0 <= y_v34_okul_41 <= 1
 0 <= y_v34_okul_46 <= 1
 0 <= y_v34_okul_51 <= 1
 0 <= y_v34_okul_52 <= 1
 0 <= y_v34_okul_53 <= 1
 0 <= y_v34_okul_55 <= 1
 0 <= y_v34_okul_56 <= 1
 0 <= y_v34_okul_57 <= 1
 0 <= y_v34_okul_58 <= 1
 0 <= y_v34_okul_62 <= 1
 0 <= y_v34_okul_67 <= 1
 0 <= y_v34_okul_68 <= 1
 0 <= y_v34_okul_69 <= 1
 0 <= y_v34_okul_71 <= 1
 0 <= y_v35_melik_18 <= 1
 0 <= y_v35_melik_24 <= 1
 0 <= y_v35_melik_42 <= 1
 0 <= y_v35_melik_45 <= 1
 0 <= y_v35_melik_51 <= 1
 0 <= y_v35_melik_53 <= 1
 0 <= y_v35_melik_56 <= 1
 0 <= y_v35_melik_59 <= 1
 0 <= y_v35_melik_69 <= 1
 0 <= y_v35_melik_72 <= 1
 0 <= y_v35_melik_74 <= 1
 0 <= y_v35_melik_80 <= 1
 0 <= y_v35_okul_0 <= 1
 0 <= y_v35_okul_2 <= 1
 0 <= y_v35_okul_5 <= 1
 0 <= y_v35_okul_6 <= 1
 0 <= y_v35_okul_7 <= 1
 0 <= y_v35_okul_14 <= 1
 0 <= y_v35_okul_16 <= 1
 0 <= y_v35_okul_18 <= 1
 0 <= y_v35_okul_19 <= 1
 0 <= y_v35_okul_21 <= 1
 0 <= y_v35_okul_22 <= 1
 0 <= y_v35_okul_25 <= 1
 0 <= y_v35_okul_26 <= 1
 0 <= y_v35_okul_29 <= 1
 0 <= y_v35_okul_30 <= 1
 0 <= y_v35_okul_33 <= 1
 0 <= y_v35_okul_34 <= 1
 0 <= y_v35_okul_35 <= 1
 0 <= y_v35_okul_36 <= 1
 0 <= y_v35_okul_37 <= 1
 0 <= y_v35_okul_39 <= 1
 0 <= y_v35_okul_40 <= 1
 0 <= y_v35_okul_41 <= 1
 0 <= y_v35_okul_46 <= 1
 0 <= y_v35_okul_47 <= 1
 0 <= y_v35_okul_49 <= 1
 0 <= y_v35_okul_51 <= 1
 0 <= y_v35_okul_52 <= 1
 0 <= y_v35_okul_53 <= 1
 0 <= y_v35_okul_55 <= 1
 0 <= y_v35_okul_56 <= 1
 0 <= y_v35_okul_57 <= 1
 0 <= y_v35_okul_58 <= 1
 0 <= y_v35_okul_62 <= 1
 0 <= y_v35_okul_67 <= 1
 0 <= y_v35_okul_68 <= 1
 0 <= y_v35_okul_69 <= 1
 0 <= y_v35_okul_71 <= 1
 0 <= y_v36_melik_24 <= 1
 0 <= y_v36_melik_30 <= 1
 0 <= y_v36_melik_34 <= 1
 0 <= y_v36_melik_37 <= 1
 0 <= y_v36_melik_42 <= 1
 0 <= y_v36_melik_45 <= 1
 0 <= y_v36_melik_51 <= 1
 0 <= y_v36_melik_53 <= 1
 0 <= y_v36_melik_59 <= 1
 0 <= y_v36_melik_66 <= 1
 0 <= y_v36_melik_69 <= 1
 0 <= y_v36_melik_74 <= 1
 0 <= y_v36_okul_0 <= 1
 0 <= y_v36_okul_1 <= 1
 0 <= y_v36_okul_2 <= 1
 0 <= y_v36_okul_3 <= 1
 0 <= y_v36_okul_5 <= 1
 0 <= y_v36_okul_6 <= 1
 0 <= y_v36_okul_9 <= 1
 0 <= y_v36_okul_14 <= 1
 0 <= y_v36_okul_18 <= 1
 0 <= y_v36_okul_19 <= 1
 0 <= y_v36_okul_21 <= 1
 0 <= y_v36_okul_22 <= 1
 0 <= y_v36_okul_25 <= 1
 0 <= y_v36_okul_30 <= 1
 0 <= y_v36_okul_33 <= 1
 0 <= y_v36_okul_34 <= 1
 0 <= y_v36_okul_35 <= 1
 0 <= y_v36_okul_37 <= 1
 0 <= y_v36_okul_39 <= 1
 0 <= y_v36_okul_40 <= 1
 0 <= y_v36_okul_41 <= 1
 0 <= y_v36_okul_46 <= 1
 0 <= y_v36_okul_47 <= 1
 0 <= y_v36_okul_49 <= 1
 0 <= y_v36_okul_51 <= 1
 0 <= y_v36_okul_52 <= 1
 0 <= y_v36_okul_53 <= 1
 0 <= y_v36_okul_55 <= 1
 0 <= y_v36_okul_56 <= 1
 0 <= y_v36_okul_57 <= 1
 0 <= y_v36_okul_58 <= 1
 0 <= y_v36_okul_59 <= 1
 0 <= y_v36_okul_65 <= 1
 0 <= y_v36_okul_66 <= 1
 0 <= y_v36_okul_67 <= 1
 0 <= y_v36_okul_68 <= 1
 0 <= y_v36_okul_69 <= 1
 0 <= y_v36_okul_71 <= 1
 0 <= y_v37_melik_7 <= 1
 0 <= y_v37_melik_24 <= 1
 0 <= y_v37_melik_26 <= 1
 0 <= y_v37_melik_30 <= 1
 0 <= y_v37_melik_34 <= 1
 0 <= y_v37_melik_37 <= 1
 0 <= y_v37_melik_40 <= 1
 0 <= y_v37_melik_45 <= 1
 0 <= y_v37_melik_46 <= 1
 0 <= y_v37_melik_59 <= 1
 0 <= y_v37_melik_66 <= 1
 0 <= y_v37_melik_74 <= 1
 0 <= y_v37_okul_0 <= 1
 0 <= y_v37_okul_1 <= 1
 0 <= y_v37_okul_2 <= 1
 0 <= y_v37_okul_3 <= 1
 0 <= y_v37_okul_5 <= 1
 0 <= y_v37_okul_6 <= 1
 0 <= y_v37_okul_9 <= 1
 0 <= y_v37_okul_11 <= 1
 0 <= y_v37_okul_14 <= 1
 0 <= y_v37_okul_18 <= 1
 0 <= y_v37_okul_19 <= 1
 0 <= y_v37_okul_21 <= 1
 0 <= y_v37_okul_22 <= 1
 0 <= y_v37_okul_25 <= 1
 0 <= y_v37_okul_30 <= 1
 0 <= y_v37_okul_33 <= 1
 0 <= y_v37_okul_34 <= 1
 0 <= y_v37_okul_39 <= 1
 0 <= y_v37_okul_40 <= 1
 0 <= y_v37_okul_41 <= 1
 0 <= y_v37_okul_47 <= 1
 0 <= y_v37_okul_49 <= 1
 0 <= y_v37_okul_52 <= 1
 0 <= y_v37_okul_53 <= 1
 0 <= y_v37_okul_56 <= 1
 0 <= y_v37_okul_58 <= 1
 0 <= y_v37_okul_59 <= 1
 0 <= y_v37_okul_60 <= 1
 0 <= y_v37_okul_65 <= 1
 0 <= y_v37_okul_66 <= 1
 0 <= y_v37_okul_67 <= 1
 0 <= y_v37_okul_68 <= 1
 0 <= y_v37_okul_69 <= 1
 0 <= y_v37_okul_71 <= 1
 0 <= y_v38_melik_7 <= 1
 0 <= y_v38_melik_24 <= 1
 0 <= y_v38_melik_26 <= 1
 0 <= y_v38_melik_29 <= 1
 0 <= y_v38_melik_31 <= 1
 0 <= y_v38_melik_34 <= 1
 0 <= y_v38_melik_40 <= 1
 0 <= y_v38_melik_45 <= 1
 0 <= y_v38_melik_46 <= 1
 0 <= y_v38_melik_47 <= 1
 0 <= y_v38_melik_50 <= 1
 0 <= y_v38_melik_66 <= 1
 0 <= y_v38_okul_1 <= 1
 0 <= y_v38_okul_2 <= 1
 0 <= y_v38_okul_3 <= 1
 0 <= y_v38_okul_6 <= 1
 0 <= y_v38_okul_9 <= 1
 0 <= y_v38_okul_11 <= 1
 0 <= y_v38_okul_14 <= 1
 0 <= y_v38_okul_19 <= 1
 0 <= y_v38_okul_21 <= 1
 0 <= y_v38_okul_22 <= 1
 0 <= y_v38_okul_25 <= 1
 0 <= y_v38_okul_30 <= 1
 0 <= y_v38_okul_33 <= 1
 0 <= y_v38_okul_34 <= 1
 0 <= y_v38_okul_40 <= 1
 0 <= y_v38_okul_41 <= 1
 0 <= y_v38_okul_47 <= 1
 0 <= y_v38_okul_49 <= 1
 0 <= y_v38_okul_52 <= 1
 0 <= y_v38_okul_53 <= 1
 0 <= y_v38_okul_58 <= 1
 0 <= y_v38_okul_59 <= 1
 0 <= y_v38_okul_60 <= 1
 0 <= y_v38_okul_65 <= 1
 0 <= y_v38_okul_66 <= 1
 0 <= y_v38_okul_67 <= 1
 0 <= y_v38_okul_68 <= 1
 0 <= y_v38_okul_71 <= 1
 0 <= y_v39_melik_26 <= 1
 0 <= y_v39_melik_29 <= 1
 0 <= y_v39_melik_31 <= 1
 0 <= y_v39_melik_34 <= 1
 0 <= y_v39_melik_40 <= 1
 0 <= y_v39_melik_47 <= 1
 0 <= y_v39_melik_50 <= 1
 0 <= y_v39_melik_60 <= 1
 0 <= y_v39_melik_66 <= 1
 0 <= y_v39_melik_68 <= 1
 0 <= y_v39_okul_1 <= 1
 0 <= y_v39_okul_3 <= 1
 0 <= y_v39_okul_6 <= 1
 0 <= y_v39_okul_9 <= 1
 0 <= y_v39_okul_11 <= 1
 0 <= y_v39_okul_19 <= 1
 0 <= y_v39_okul_22 <= 1
 0 <= y_v39_okul_30 <= 1
 0 <= y_v39_okul_33 <= 1
 0 <= y_v39_okul_34 <= 1
 0 <= y_v39_okul_40 <= 1
 0 <= y_v39_okul_41 <= 1
 0 <= y_v39_okul_47 <= 1
 0 <= y_v39_okul_49 <= 1
 0 <= y_v39_okul_53 <= 1
 0 <= y_v39_okul_58 <= 1
 0 <= y_v39_okul_59 <= 1
 0 <= y_v39_okul_60 <= 1
 0 <= y_v39_okul_65 <= 1
 0 <= y_v39_okul_66 <= 1
 0 <= y_v39_okul_68 <= 1
 0 <= y_v39_okul_71 <= 1
 0 <= y_v40_melik_26 <= 1
 0 <= y_v40_melik_31 <= 1
 0 <= y_v40_melik_40 <= 1
 0 <= y_v40_melik_50 <= 1
 0 <= y_v40_melik_60 <= 1
 0 <= y_v40_melik_68 <= 1
 0 <= y_v40_okul_1 <= 1
 0 <= y_v40_okul_3 <= 1
 0 <= y_v40_okul_6 <= 1
 0 <= y_v40_okul_9 <= 1
 0 <= y_v40_okul_11 <= 1
 0 <= y_v40_okul_19 <= 1
 0 <= y_v40_okul_22 <= 1
 0 <= y_v40_okul_30 <= 1
 0 <= y_v40_okul_34 <= 1
 0 <= y_v40_okul_40 <= 1
 0 <= y_v40_okul_59 <= 1
 0 <= y_v40_okul_60 <= 1
 0 <= y_v40_okul_65 <= 1
 0 <= y_v40_okul_66 <= 1
 0 <= y_v40_okul_68 <= 1
 0 <= y_v40_okul_71 <= 1
 0 <= y_v41_melik_22 <= 1
 0 <= y_v41_melik_27 <= 1
 0 <= y_v41_melik_44 <= 1
 0 <= y_v41_melik_54 <= 1
 0 <= y_v41_melik_61 <= 1
 0 <= y_v41_melik_79 <= 1
 0 <= y_v41_okul_0 <= 1
 0 <= y_v41_okul_7 <= 1
 0 <= y_v41_okul_16 <= 1
 0 <= y_v41_okul_26 <= 1
 0 <= y_v41_okul_28 <= 1
 0 <= y_v41_okul_31 <= 1
 0 <= y_v41_okul_35 <= 1
 0 <= y_v41_okul_36 <= 1
 0 <= y_v41_okul_37 <= 1
 0 <= y_v41_okul_46 <= 1
 0 <= y_v41_okul_51 <= 1
 0 <= y_v41_okul_56 <= 1
 0 <= y_v41_okul_57 <= 1
 0 <= y_v41_okul_62 <= 1
 0 <= y_v41_okul_63 <= 1
 0 <= y_v41_okul_69 <= 1
 0 <= y_v42_melik_12 <= 1
 0 <= y_v42_melik_22 <= 1
 0 <= y_v42_melik_27 <= 1
 0 <= y_v42_melik_44 <= 1
 0 <= y_v42_melik_54 <= 1
 0 <= y_v42_melik_55 <= 1
 0 <= y_v42_melik_56 <= 1
 0 <= y_v42_melik_61 <= 1
 0 <= y_v42_melik_71 <= 1
 0 <= y_v42_melik_79 <= 1
 0 <= y_v42_okul_0 <= 1
 0 <= y_v42_okul_2 <= 1
 0 <= y_v42_okul_5 <= 1
 0 <= y_v42_okul_7 <= 1
 0 <= y_v42_okul_16 <= 1
 0 <= y_v42_okul_26 <= 1
 0 <= y_v42_okul_28 <= 1
 0 <= y_v42_okul_31 <= 1
 0 <= y_v42_okul_35 <= 1
 0 <= y_v42_okul_36 <= 1
 0 <= y_v42_okul_37 <= 1
 0 <= y_v42_okul_39 <= 1
 0 <= y_v42_okul_42 <= 1
 0 <= y_v42_okul_46 <= 1
 0 <= y_v42_okul_51 <= 1
 0 <= y_v42_okul_52 <= 1
 0 <= y_v42_okul_56 <= 1
 0 <= y_v42_okul_57 <= 1
 0 <= y_v42_okul_62 <= 1
 0 <= y_v42_okul_63 <= 1
 0 <= y_v42_okul_67 <= 1
 0 <= y_v42_okul_69 <= 1
 0 <= y_v43_melik_12 <= 1
 0 <= y_v43_melik_22 <= 1
 0 <= y_v43_melik_27 <= 1
 0 <= y_v43_melik_41 <= 1
 0 <= y_v43_melik_44 <= 1
 0 <= y_v43_melik_51 <= 1
 0 <= y_v43_melik_55 <= 1
 0 <= y_v43_melik_56 <= 1
 0 <= y_v43_melik_71 <= 1
 0 <= y_v43_melik_72 <= 1
 0 <= y_v43_melik_79 <= 1
 0 <= y_v43_melik_80 <= 1
 0 <= y_v43_okul_0 <= 1
 0 <= y_v43_okul_2 <= 1
 0 <= y_v43_okul_5 <= 1
 0 <= y_v43_okul_7 <= 1
 0 <= y_v43_okul_10 <= 1
 0 <= y_v43_okul_16 <= 1
 0 <= y_v43_okul_21 <= 1
 0 <= y_v43_okul_25 <= 1
 0 <= y_v43_okul_26 <= 1
 0 <= y_v43_okul_28 <= 1
 0 <= y_v43_okul_31 <= 1
 0 <= y_v43_okul_35 <= 1
 0 <= y_v43_okul_36 <= 1
 0 <= y_v43_okul_37 <= 1
 0 <= y_v43_okul_39 <= 1
 0 <= y_v43_okul_41 <= 1
 0 <= y_v43_okul_42 <= 1
 0 <= y_v43_okul_46 <= 1
 0 <= y_v43_okul_51 <= 1
 0 <= y_v43_okul_52 <= 1
 0 <= y_v43_okul_53 <= 1
 0 <= y_v43_okul_56 <= 1
 0 <= y_v43_okul_57 <= 1
 0 <= y_v43_okul_58 <= 1
 0 <= y_v43_okul_62 <= 1
 0 <= y_v43_okul_63 <= 1
 0 <= y_v43_okul_67 <= 1
 0 <= y_v43_okul_69 <= 1
 0 <= y_v44_melik_12 <= 1
 0 <= y_v44_melik_27 <= 1
 0 <= y_v44_melik_28 <= 1
 0 <= y_v44_melik_41 <= 1
 0 <= y_v44_melik_44 <= 1
 0 <= y_v44_melik_51 <= 1
 0 <= y_v44_melik_53 <= 1
 0 <= y_v44_melik_56 <= 1
 0 <= y_v44_melik_59 <= 1
 0 <= y_v44_melik_69 <= 1
 0 <= y_v44_melik_72 <= 1
 0 <= y_v44_melik_80 <= 1
 0 <= y_v44_okul_0 <= 1
 0 <= y_v44_okul_2 <= 1
 0 <= y_v44_okul_5 <= 1
 0 <= y_v44_okul_7 <= 1
 0 <= y_v44_okul_10 <= 1
 0 <= y_v44_okul_12 <= 1
 0 <= y_v44_okul_16 <= 1
 0 <= y_v44_okul_21 <= 1
 0 <= y_v44_okul_25 <= 1
 0 <= y_v44_okul_26 <= 1
 0 <= y_v44_okul_28 <= 1
 0 <= y_v44_okul_31 <= 1
 0 <= y_v44_okul_33 <= 1
 0 <= y_v44_okul_34 <= 1
 0 <= y_v44_okul_35 <= 1
 0 <= y_v44_okul_36 <= 1
 0 <= y_v44_okul_37 <= 1
 0 <= y_v44_okul_39 <= 1
 0 <= y_v44_okul_41 <= 1
 0 <= y_v44_okul_42 <= 1
 0 <= y_v44_okul_46 <= 1
 0 <= y_v44_okul_49 <= 1
 0 <= y_v44_okul_51 <= 1
 0 <= y_v44_okul_52 <= 1
 0 <= y_v44_okul_53 <= 1
 0 <= y_v44_okul_56 <= 1
 0 <= y_v44_okul_57 <= 1
 0 <= y_v44_okul_58 <= 1
 0 <= y_v44_okul_62 <= 1
 0 <= y_v44_okul_63 <= 1
 0 <= y_v44_okul_67 <= 1
 0 <= y_v44_okul_68 <= 1
 0 <= y_v44_okul_69 <= 1
 0 <= y_v44_okul_71 <= 1
 0 <= y_v45_melik_12 <= 1
 0 <= y_v45_melik_24 <= 1
 0 <= y_v45_melik_28 <= 1
 0 <= y_v45_melik_37 <= 1
 0 <= y_v45_melik_51 <= 1
 0 <= y_v45_melik_53 <= 1
 0 <= y_v45_melik_56 <= 1
 0 <= y_v45_melik_59 <= 1
 0 <= y_v45_melik_69 <= 1
 0 <= y_v45_melik_74 <= 1
 0 <= y_v45_melik_78 <= 1
 0 <= y_v45_melik_80 <= 1
 0 <= y_v45_okul_0 <= 1
 0 <= y_v45_okul_2 <= 1
 0 <= y_v45_okul_5 <= 1
 0 <= y_v45_okul_6 <= 1
 0 <= y_v45_okul_7 <= 1
 0 <= y_v45_okul_10 <= 1
 0 <= y_v45_okul_12 <= 1
 0 <= y_v45_okul_16 <= 1
 0 <= y_v45_okul_19 <= 1
 0 <= y_v45_okul_21 <= 1
 0 <= y_v45_okul_25 <= 1
 0 <= y_v45_okul_28 <= 1
 0 <= y_v45_okul_30 <= 1
 0 <= y_v45_okul_31 <= 1
 0 <= y_v45_okul_32 <= 1
 0 <= y_v45_okul_33 <= 1
 0 <= y_v45_okul_34 <= 1
 0 <= y_v45_okul_35 <= 1
 0 <= y_v45_okul_36 <= 1
 0 <= y_v45_okul_37 <= 1
 0 <= y_v45_okul_39 <= 1
 0 <= y_v45_okul_40 <= 1
 0 <= y_v45_okul_41 <= 1
 0 <= y_v45_okul_42 <= 1
 0 <= y_v45_okul_46 <= 1
 0 <= y_v45_okul_49 <= 1
 0 <= y_v45_okul_51 <= 1
 0 <= y_v45_okul_52 <= 1
 0 <= y_v45_okul_53 <= 1
 0 <= y_v45_okul_56 <= 1
 0 <= y_v45_okul_57 <= 1
 0 <= y_v45_okul_58 <= 1
 0 <= y_v45_okul_59 <= 1
 0 <= y_v45_okul_62 <= 1
 0 <= y_v45_okul_67 <= 1
 0 <= y_v45_okul_68 <= 1
 0 <= y_v45_okul_69 <= 1
 0 <= y_v45_okul_71 <= 1
 0 <= y_v46_melik_7 <= 1
 0 <= y_v46_melik_10 <= 1
 0 <= y_v46_melik_24 <= 1
 0 <= y_v46_melik_34 <= 1
 0 <= y_v46_melik_37 <= 1
 0 <= y_v46_melik_45 <= 1
 0 <= y_v46_melik_51 <= 1
 0 <= y_v46_melik_59 <= 1
 0 <= y_v46_melik_69 <= 1
 0 <= y_v46_melik_74 <= 1
 0 <= y_v46_melik_78 <= 1
 0 <= y_v46_melik_80 <= 1
 0 <= y_v46_okul_0 <= 1
 0 <= y_v46_okul_2 <= 1
 0 <= y_v46_okul_3 <= 1
 0 <= y_v46_okul_5 <= 1
 0 <= y_v46_okul_6 <= 1
 0 <= y_v46_okul_7 <= 1
 0 <= y_v46_okul_10 <= 1
 0 <= y_v46_okul_11 <= 1
 0 <= y_v46_okul_12 <= 1
 0 <= y_v46_okul_19 <= 1
 0 <= y_v46_okul_21 <= 1
 0 <= y_v46_okul_22 <= 1
 0 <= y_v46_okul_25 <= 1
 0 <= y_v46_okul_30 <= 1
 0 <= y_v46_okul_32 <= 1
 0 <= y_v46_okul_33 <= 1
 0 <= y_v46_okul_34 <= 1
 0 <= y_v46_okul_37 <= 1
 0 <= y_v46_okul_39 <= 1
 0 <= y_v46_okul_40 <= 1
 0 <= y_v46_okul_41 <= 1
 0 <= y_v46_okul_42 <= 1
 0 <= y_v46_okul_46 <= 1
 0 <= y_v46_okul_49 <= 1
 0 <= y_v46_okul_51 <= 1
 0 <= y_v46_okul_52 <= 1
 0 <= y_v46_okul_53 <= 1
 0 <= y_v46_okul_56 <= 1
 0 <= y_v46_okul_57 <= 1
 0 <= y_v46_okul_58 <= 1
 0 <= y_v46_okul_59 <= 1
 0 <= y_v46_okul_65 <= 1
 0 <= y_v46_okul_66 <= 1
 0 <= y_v46_okul_67 <= 1
 0 <= y_v46_okul_68 <= 1
 0 <= y_v46_okul_69 <= 1
 0 <= y_v46_okul_70 <= 1
 0 <= y_v46_okul_71 <= 1
 0 <= y_v47_melik_7 <= 1
 0 <= y_v47_melik_10 <= 1
 0 <= y_v47_melik_24 <= 1
 0 <= y_v47_melik_26 <= 1
 0 <= y_v47_melik_34 <= 1
 0 <= y_v47_melik_37 <= 1
 0 <= y_v47_melik_45 <= 1
 0 <= y_v47_melik_47 <= 1
 0 <= y_v47_melik_59 <= 1
 0 <= y_v47_melik_63 <= 1
 0 <= y_v47_melik_66 <= 1
 0 <= y_v47_melik_69 <= 1
 0 <= y_v47_okul_0 <= 1
 0 <= y_v47_okul_1 <= 1
 0 <= y_v47_okul_2 <= 1
 0 <= y_v47_okul_3 <= 1
 0 <= y_v47_okul_6 <= 1
 0 <= y_v47_okul_10 <= 1
 0 <= y_v47_okul_11 <= 1
 0 <= y_v47_okul_12 <= 1
 0 <= y_v47_okul_19 <= 1
 0 <= y_v47_okul_21 <= 1
 0 <= y_v47_okul_22 <= 1
 0 <= y_v47_okul_25 <= 1
 0 <= y_v47_okul_30 <= 1
 0 <= y_v47_okul_32 <= 1
 0 <= y_v47_okul_33 <= 1
 0 <= y_v47_okul_34 <= 1
 0 <= y_v47_okul_37 <= 1
 0 <= y_v47_okul_39 <= 1
 0 <= y_v47_okul_40 <= 1
 0 <= y_v47_okul_41 <= 1
 0 <= y_v47_okul_49 <= 1
 0 <= y_v47_okul_52 <= 1
 0 <= y_v47_okul_53 <= 1
 0 <= y_v47_okul_56 <= 1
 0 <= y_v47_okul_58 <= 1
 0 <= y_v47_okul_59 <= 1
 0 <= y_v47_okul_61 <= 1
 0 <= y_v47_okul_65 <= 1
 0 <= y_v47_okul_66 <= 1
 0 <= y_v47_okul_67 <= 1
 0 <= y_v47_okul_68 <= 1
 0 <= y_v47_okul_69 <= 1
 0 <= y_v47_okul_70 <= 1
 0 <= y_v47_okul_71 <= 1
 0 <= y_v48_melik_7 <= 1
 0 <= y_v48_melik_24 <= 1
 0 <= y_v48_melik_26 <= 1
 0 <= y_v48_melik_34 <= 1
 0 <= y_v48_melik_37 <= 1
 0 <= y_v48_melik_40 <= 1
 0 <= y_v48_melik_47 <= 1
 0 <= y_v48_melik_49 <= 1
 0 <= y_v48_melik_50 <= 1
 0 <= y_v48_melik_63 <= 1
 0 <= y_v48_melik_66 <= 1
 0 <= y_v48_melik_68 <= 1
 0 <= y_v48_okul_1 <= 1
 0 <= y_v48_okul_2 <= 1
 0 <= y_v48_okul_3 <= 1
 0 <= y_v48_okul_6 <= 1
 0 <= y_v48_okul_11 <= 1
 0 <= y_v48_okul_12 <= 1
 0 <= y_v48_okul_19 <= 1
 0 <= y_v48_okul_22 <= 1
 0 <= y_v48_okul_25 <= 1
 0 <= y_v48_okul_30 <= 1
 0 <= y_v48_okul_32 <= 1
 0 <= y_v48_okul_33 <= 1
 0 <= y_v48_okul_34 <= 1
 0 <= y_v48_okul_39 <= 1
 0 <= y_v48_okul_40 <= 1
 0 <= y_v48_okul_41 <= 1
 0 <= y_v48_okul_49 <= 1
 0 <= y_v48_okul_52 <= 1
 0 <= y_v48_okul_53 <= 1
 0 <= y_v48_okul_58 <= 1
 0 <= y_v48_okul_59 <= 1
 0 <= y_v48_okul_61 <= 1
 0 <= y_v48_okul_65 <= 1
 0 <= y_v48_okul_66 <= 1
 0 <= y_v48_okul_67 <= 1
 0 <= y_v48_okul_68 <= 1
 0 <= y_v48_okul_70 <= 1
 0 <= y_v48_okul_71 <= 1
 0 <= y_v49_melik_7 <= 1
 0 <= y_v49_melik_26 <= 1
 0 <= y_v49_melik_31 <= 1
 0 <= y_v49_melik_34 <= 1
 0 <= y_v49_melik_40 <= 1
 0 <= y_v49_melik_47 <= 1
 0 <= y_v49_melik_49 <= 1
 0 <= y_v49_melik_50 <= 1
 0 <= y_v49_melik_64 <= 1
 0 <= y_v49_melik_68 <= 1
 0 <= y_v49_okul_1 <= 1
 0 <= y_v49_okul_3 <= 1
 0 <= y_v49_okul_6 <= 1
 0 <= y_v49_okul_11 <= 1
 0 <= y_v49_okul_19 <= 1
 0 <= y_v49_okul_22 <= 1
 0 <= y_v49_okul_25 <= 1
 0 <= y_v49_okul_30 <= 1
 0 <= y_v49_okul_32 <= 1
 0 <= y_v49_okul_34 <= 1
 0 <= y_v49_okul_40 <= 1
 0 <= y_v49_okul_41 <= 1
 0 <= y_v49_okul_49 <= 1
 0 <= y_v49_okul_53 <= 1
 0 <= y_v49_okul_58 <= 1
 0 <= y_v49_okul_59 <= 1
 0 <= y_v49_okul_61 <= 1
 0 <= y_v49_okul_65 <= 1
 0 <= y_v49_okul_66 <= 1
 0 <= y_v49_okul_68 <= 1
 0 <= y_v49_okul_70 <= 1
 0 <= y_v49_okul_71 <= 1
 0 <= y_v50_melik_26 <= 1
 0 <= y_v50_melik_31 <= 1
 0 <= y_v50_melik_47 <= 1
 0 <= y_v50_melik_50 <= 1
 0 <= y_v50_melik_64 <= 1
 0 <= y_v50_melik_68 <= 1
 0 <= y_v50_okul_1 <= 1
 0 <= y_v50_okul_3 <= 1
 0 <= y_v50_okul_6 <= 1
 0 <= y_v50_okul_11 <= 1
 0 <= y_v50_okul_19 <= 1
 0 <= y_v50_okul_22 <= 1
 0 <= y_v50_okul_34 <= 1
 0 <= y_v50_okul_40 <= 1
 0 <= y_v50_okul_49 <= 1
 0 <= y_v50_okul_59 <= 1
 0 <= y_v50_okul_61 <= 1
 0 <= y_v50_okul_65 <= 1
 0 <= y_v50_okul_66 <= 1
 0 <= y_v50_okul_68 <= 1
 0 <= y_v50_okul_70 <= 1
 0 <= y_v50_okul_71 <= 1
 0 <= y_v51_melik_22 <= 1
 0 <= y_v51_melik_36 <= 1
 0 <= y_v51_melik_44 <= 1
 0 <= y_v51_melik_54 <= 1
 0 <= y_v51_melik_71 <= 1
 0 <= y_v51_melik_79 <= 1
 0 <= y_v51_okul_0 <= 1
 0 <= y_v51_okul_7 <= 1
 0 <= y_v51_okul_16 <= 1
 0 <= y_v51_okul_20 <= 1
 0 <= y_v51_okul_28 <= 1
 0 <= y_v51_okul_31 <= 1
 0 <= y_v51_okul_36 <= 1
 0 <= y_v51_okul_37 <= 1
 0 <= y_v51_okul_38 <= 1
 0 <= y_v51_okul_42 <= 1
 0 <= y_v51_okul_46 <= 1
 0 <= y_v51_okul_51 <= 1
 0 <= y_v51_okul_57 <= 1
 0 <= y_v51_okul_62 <= 1
 0 <= y_v51_okul_63 <= 1
 0 <= y_v51_okul_69 <= 1
 0 <= y_v52_melik_12 <= 1
 0 <= y_v52_melik_22 <= 1
 0 <= y_v52_melik_27 <= 1
 0 <= y_v52_melik_36 <= 1
 0 <= y_v52_melik_41 <= 1
 0 <= y_v52_melik_44 <= 1
 0 <= y_v52_melik_54 <= 1
 0 <= y_v52_melik_71 <= 1
 0 <= y_v52_melik_73 <= 1
 0 <= y_v52_melik_79 <= 1
 0 <= y_v52_okul_0 <= 1
 0 <= y_v52_okul_2 <= 1
 0 <= y_v52_okul_7 <= 1
 0 <= y_v52_okul_10 <= 1
 0 <= y_v52_okul_13 <= 1
 0 <= y_v52_okul_16 <= 1
 0 <= y_v52_okul_20 <= 1
 0 <= y_v52_okul_28 <= 1
 0 <= y_v52_okul_31 <= 1
 0 <= y_v52_okul_36 <= 1
 0 <= y_v52_okul_37 <= 1
 0 <= y_v52_okul_38 <= 1
 0 <= y_v52_okul_39 <= 1
 0 <= y_v52_okul_42 <= 1
 0 <= y_v52_okul_46 <= 1
 0 <= y_v52_okul_51 <= 1
 0 <= y_v52_okul_52 <= 1
 0 <= y_v52_okul_56 <= 1
 0 <= y_v52_okul_57 <= 1
 0 <= y_v52_okul_62 <= 1
 0 <= y_v52_okul_63 <= 1
 0 <= y_v52_okul_69 <= 1
 0 <= y_v53_melik_1 <= 1
 0 <= y_v53_melik_12 <= 1
 0 <= y_v53_melik_27 <= 1
 0 <= y_v53_melik_28 <= 1
 0 <= y_v53_melik_41 <= 1
 0 <= y_v53_melik_44 <= 1
 0 <= y_v53_melik_54 <= 1
 0 <= y_v53_melik_56 <= 1
 0 <= y_v53_melik_71 <= 1
 0 <= y_v53_melik_73 <= 1
 0 <= y_v53_melik_79 <= 1
 0 <= y_v53_melik_80 <= 1
 0 <= y_v53_okul_0 <= 1
 0 <= y_v53_okul_2 <= 1
 0 <= y_v53_okul_7 <= 1
 0 <= y_v53_okul_10 <= 1
 0 <= y_v53_okul_12 <= 1
 0 <= y_v53_okul_13 <= 1
 0 <= y_v53_okul_16 <= 1
 0 <= y_v53_okul_20 <= 1
 0 <= y_v53_okul_24 <= 1
 0 <= y_v53_okul_25 <= 1
 0 <= y_v53_okul_28 <= 1
 0 <= y_v53_okul_31 <= 1
 0 <= y_v53_okul_36 <= 1
 0 <= y_v53_okul_37 <= 1
 0 <= y_v53_okul_38 <= 1
 0 <= y_v53_okul_39 <= 1
 0 <= y_v53_okul_41 <= 1
 0 <= y_v53_okul_42 <= 1
 0 <= y_v53_okul_46 <= 1
 0 <= y_v53_okul_51 <= 1
 0 <= y_v53_okul_52 <= 1
 0 <= y_v53_okul_53 <= 1
 0 <= y_v53_okul_56 <= 1
 0 <= y_v53_okul_57 <= 1
 0 <= y_v53_okul_62 <= 1
 0 <= y_v53_okul_63 <= 1
 0 <= y_v53_okul_67 <= 1
 0 <= y_v53_okul_69 <= 1
 0 <= y_v54_melik_1 <= 1
 0 <= y_v54_melik_12 <= 1
 0 <= y_v54_melik_28 <= 1
 0 <= y_v54_melik_41 <= 1
 0 <= y_v54_melik_44 <= 1
 0 <= y_v54_melik_51 <= 1
 0 <= y_v54_melik_52 <= 1
 0 <= y_v54_melik_56 <= 1
 0 <= y_v54_melik_69 <= 1
 0 <= y_v54_melik_71 <= 1
 0 <= y_v54_melik_78 <= 1
 0 <= y_v54_melik_80 <= 1
 0 <= y_v54_okul_0 <= 1
 0 <= y_v54_okul_2 <= 1
 0 <= y_v54_okul_7 <= 1
 0 <= y_v54_okul_10 <= 1
 0 <= y_v54_okul_12 <= 1
 0 <= y_v54_okul_13 <= 1
 0 <= y_v54_okul_16 <= 1
 0 <= y_v54_okul_20 <= 1
 0 <= y_v54_okul_24 <= 1
 0 <= y_v54_okul_25 <= 1
 0 <= y_v54_okul_28 <= 1
 0 <= y_v54_okul_31 <= 1
 0 <= y_v54_okul_32 <= 1
 0 <= y_v54_okul_34 <= 1
 0 <= y_v54_okul_36 <= 1
 0 <= y_v54_okul_37 <= 1
 0 <= y_v54_okul_38 <= 1
 0 <= y_v54_okul_39 <= 1
 0 <= y_v54_okul_41 <= 1
 0 <= y_v54_okul_42 <= 1
 0 <= y_v54_okul_46 <= 1
 0 <= y_v54_okul_49 <= 1
 0 <= y_v54_okul_51 <= 1
 0 <= y_v54_okul_52 <= 1
 0 <= y_v54_okul_53 <= 1
 0 <= y_v54_okul_54 <= 1
 0 <= y_v54_okul_56 <= 1
 0 <= y_v54_okul_57 <= 1
 0 <= y_v54_okul_58 <= 1
 0 <= y_v54_okul_62 <= 1
 0 <= y_v54_okul_63 <= 1
 0 <= y_v54_okul_67 <= 1
 0 <= y_v54_okul_68 <= 1
 0 <= y_v54_okul_69 <= 1
 0 <= y_v55_melik_10 <= 1
 0 <= y_v55_melik_12 <= 1
 0 <= y_v55_melik_21 <= 1
 0 <= y_v55_melik_28 <= 1
 0 <= y_v55_melik_37 <= 1
 0 <= y_v55_melik_41 <= 1
 0 <= y_v55_melik_51 <= 1
 0 <= y_v55_melik_52 <= 1
 0 <= y_v55_melik_59 <= 1
 0 <= y_v55_melik_69 <= 1
 0 <= y_v55_melik_78 <= 1
 0 <= y_v55_melik_80 <= 1
 0 <= y_v55_okul_0 <= 1
 0 <= y_v55_okul_2 <= 1
 0 <= y_v55_okul_6 <= 1
 0 <= y_v55_okul_7 <= 1
 0 <= y_v55_okul_10 <= 1
 0 <= y_v55_okul_12 <= 1
 0 <= y_v55_okul_13 <= 1
 0 <= y_v55_okul_16 <= 1
 0 <= y_v55_okul_19 <= 1
 0 <= y_v55_okul_24 <= 1
 0 <= y_v55_okul_25 <= 1
 0 <= y_v55_okul_28 <= 1
 0 <= y_v55_okul_31 <= 1
 0 <= y_v55_okul_32 <= 1
 0 <= y_v55_okul_34 <= 1
 0 <= y_v55_okul_37 <= 1
 0 <= y_v55_okul_38 <= 1
 0 <= y_v55_okul_39 <= 1
 0 <= y_v55_okul_41 <= 1
 0 <= y_v55_okul_42 <= 1
 0 <= y_v55_okul_45 <= 1
 0 <= y_v55_okul_46 <= 1
 0 <= y_v55_okul_49 <= 1
 0 <= y_v55_okul_51 <= 1
 0 <= y_v55_okul_52 <= 1
 0 <= y_v55_okul_53 <= 1
 0 <= y_v55_okul_54 <= 1
 0 <= y_v55_okul_56 <= 1
 0 <= y_v55_okul_57 <= 1
 0 <= y_v55_okul_58 <= 1
 0 <= y_v55_okul_59 <= 1
 0 <= y_v55_okul_62 <= 1
 0 <= y_v55_okul_63 <= 1
 0 <= y_v55_okul_67 <= 1
 0 <= y_v55_okul_68 <= 1
 0 <= y_v55_okul_69 <= 1
 0 <= y_v55_okul_70 <= 1
 0 <= y_v55_okul_71 <= 1
 0 <= y_v56_melik_7 <= 1
 0 <= y_v56_melik_10 <= 1
 0 <= y_v56_melik_21 <= 1
 0 <= y_v56_melik_24 <= 1
 0 <= y_v56_melik_28 <= 1
 0 <= y_v56_melik_37 <= 1
 0 <= y_v56_melik_39 <= 1
 0 <= y_v56_melik_59 <= 1
 0 <= y_v56_melik_63 <= 1
 0 <= y_v56_melik_69 <= 1
 0 <= y_v56_melik_78 <= 1
 0 <= y_v56_melik_80 <= 1
 0 <= y_v56_okul_0 <= 1
 0 <= y_v56_okul_2 <= 1
 0 <= y_v56_okul_3 <= 1
 0 <= y_v56_okul_6 <= 1
 0 <= y_v56_okul_7 <= 1
 0 <= y_v56_okul_8 <= 1
 0 <= y_v56_okul_10 <= 1
 0 <= y_v56_okul_11 <= 1
 0 <= y_v56_okul_12 <= 1
 0 <= y_v56_okul_13 <= 1
 0 <= y_v56_okul_19 <= 1
 0 <= y_v56_okul_24 <= 1
 0 <= y_v56_okul_25 <= 1
 0 <= y_v56_okul_31 <= 1
 0 <= y_v56_okul_32 <= 1
 0 <= y_v56_okul_34 <= 1
 0 <= y_v56_okul_37 <= 1
 0 <= y_v56_okul_39 <= 1
 0 <= y_v56_okul_40 <= 1
 0 <= y_v56_okul_41 <= 1
 0 <= y_v56_okul_42 <= 1
 0 <= y_v56_okul_45 <= 1
 0 <= y_v56_okul_49 <= 1
 0 <= y_v56_okul_51 <= 1
 0 <= y_v56_okul_52 <= 1
 0 <= y_v56_okul_53 <= 1
 0 <= y_v56_okul_54 <= 1
 0 <= y_v56_okul_56 <= 1
 0 <= y_v56_okul_57 <= 1
 0 <= y_v56_okul_58 <= 1
 0 <= y_v56_okul_59 <= 1
 0 <= y_v56_okul_61 <= 1
 0 <= y_v56_okul_66 <= 1
 0 <= y_v56_okul_67 <= 1
 0 <= y_v56_okul_68 <= 1
 0 <= y_v56_okul_69 <= 1
 0 <= y_v56_okul_70 <= 1
 0 <= y_v56_okul_71 <= 1
 0 <= y_v57_melik_7 <= 1
 0 <= y_v57_melik_10 <= 1
 0 <= y_v57_melik_11 <= 1
 0 <= y_v57_melik_24 <= 1
 0 <= y_v57_melik_34 <= 1
 0 <= y_v57_melik_37 <= 1
 0 <= y_v57_melik_39 <= 1
 0 <= y_v57_melik_47 <= 1
 0 <= y_v57_melik_49 <= 1
 0 <= y_v57_melik_63 <= 1
 0 <= y_v57_melik_69 <= 1
 0 <= y_v57_melik_78 <= 1
 0 <= y_v57_okul_0 <= 1
 0 <= y_v57_okul_2 <= 1
 0 <= y_v57_okul_3 <= 1
 0 <= y_v57_okul_4 <= 1
 0 <= y_v57_okul_6 <= 1
 0 <= y_v57_okul_8 <= 1
 0 <= y_v57_okul_10 <= 1
 0 <= y_v57_okul_11 <= 1
 0 <= y_v57_okul_12 <= 1
 0 <= y_v57_okul_19 <= 1
 0 <= y_v57_okul_24 <= 1
 0 <= y_v57_okul_25 <= 1
 0 <= y_v57_okul_32 <= 1
 0 <= y_v57_okul_34 <= 1
 0 <= y_v57_okul_37 <= 1
 0 <= y_v57_okul_39 <= 1
 0 <= y_v57_okul_40 <= 1
 0 <= y_v57_okul_41 <= 1
 0 <= y_v57_okul_42 <= 1
 0 <= y_v57_okul_45 <= 1
 0 <= y_v57_okul_49 <= 1
 0 <= y_v57_okul_52 <= 1
 0 <= y_v57_okul_53 <= 1
 0 <= y_v57_okul_54 <= 1
 0 <= y_v57_okul_58 <= 1
 0 <= y_v57_okul_59 <= 1
 0 <= y_v57_okul_61 <= 1
 0 <= y_v57_okul_65 <= 1
 0 <= y_v57_okul_66 <= 1
 0 <= y_v57_okul_67 <= 1
 0 <= y_v57_okul_68 <= 1
 0 <= y_v57_okul_69 <= 1
 0 <= y_v57_okul_70 <= 1
 0 <= y_v57_okul_71 <= 1
 0 <= y_v58_melik_6 <= 1
 0 <= y_v58_melik_7 <= 1
 0 <= y_v58_melik_10 <= 1
 0 <= y_v58_melik_11 <= 1
 0 <= y_v58_melik_26 <= 1
 0 <= y_v58_melik_34 <= 1
 0 <= y_v58_melik_37 <= 1
 0 <= y_v58_melik_47 <= 1
 0 <= y_v58_melik_49 <= 1
 0 <= y_v58_melik_63 <= 1
 0 <= y_v58_melik_64 <= 1
 0 <= y_v58_melik_68 <= 1
 0 <= y_v58_okul_2 <= 1
 0 <= y_v58_okul_3 <= 1
 0 <= y_v58_okul_4 <= 1
 0 <= y_v58_okul_6 <= 1
 0 <= y_v58_okul_8 <= 1
 0 <= y_v58_okul_10 <= 1
 0 <= y_v58_okul_11 <= 1
 0 <= y_v58_okul_12 <= 1
 0 <= y_v58_okul_19 <= 1
 0 <= y_v58_okul_25 <= 1
 0 <= y_v58_okul_32 <= 1
 0 <= y_v58_okul_34 <= 1
 0 <= y_v58_okul_39 <= 1
 0 <= y_v58_okul_40 <= 1
 0 <= y_v58_okul_41 <= 1
 0 <= y_v58_okul_45 <= 1
 0 <= y_v58_okul_49 <= 1
 0 <= y_v58_okul_52 <= 1
 0 <= y_v58_okul_53 <= 1
 0 <= y_v58_okul_54 <= 1
 0 <= y_v58_okul_58 <= 1
 0 <= y_v58_okul_59 <= 1
 0 <= y_v58_okul_61 <= 1
 0 <= y_v58_okul_65 <= 1
 0 <= y_v58_okul_66 <= 1
 0 <= y_v58_okul_68 <= 1
 0 <= y_v58_okul_70 <= 1
 0 <= y_v58_okul_71 <= 1
 0 <= y_v59_melik_6 <= 1
 0 <= y_v59_melik_7 <= 1
 0 <= y_v59_melik_23 <= 1
 0 <= y_v59_melik_26 <= 1
 0 <= y_v59_melik_47 <= 1
 0 <= y_v59_melik_49 <= 1
 0 <= y_v59_melik_50 <= 1
 0 <= y_v59_melik_63 <= 1
 0 <= y_v59_melik_64 <= 1
 0 <= y_v59_melik_68 <= 1
 0 <= y_v59_okul_3 <= 1
 0 <= y_v59_okul_4 <= 1
 0 <= y_v59_okul_6 <= 1
 0 <= y_v59_okul_8 <= 1
 0 <= y_v59_okul_11 <= 1
 0 <= y_v59_okul_12 <= 1
 0 <= y_v59_okul_19 <= 1
 0 <= y_v59_okul_25 <= 1
 0 <= y_v59_okul_32 <= 1
 0 <= y_v59_okul_34 <= 1
 0 <= y_v59_okul_40 <= 1
 0 <= y_v59_okul_41 <= 1
 0 <= y_v59_okul_45 <= 1
 0 <= y_v59_okul_49 <= 1
 0 <= y_v59_okul_53 <= 1
 0 <= y_v59_okul_59 <= 1
 0 <= y_v59_okul_61 <= 1
 0 <= y_v59_okul_65 <= 1
 0 <= y_v59_okul_66 <= 1
 0 <= y_v59_okul_68 <= 1
 0 <= y_v59_okul_70 <= 1
 0 <= y_v59_okul_71 <= 1
 0 <= y_v60_melik_23 <= 1
 0 <= y_v60_melik_47 <= 1
 0 <= y_v60_melik_49 <= 1
 0 <= y_v60_melik_50 <= 1
 0 <= y_v60_melik_64 <= 1
 0 <= y_v60_melik_68 <= 1
 0 <= y_v60_okul_3 <= 1
 0 <= y_v60_okul_4 <= 1
 0 <= y_v60_okul_6 <= 1
 0 <= y_v60_okul_8 <= 1
 0 <= y_v60_okul_11 <= 1
 0 <= y_v60_okul_19 <= 1
 0 <= y_v60_okul_32 <= 1
 0 <= y_v60_okul_34 <= 1
 0 <= y_v60_okul_40 <= 1
 0 <= y_v60_okul_49 <= 1
 0 <= y_v60_okul_59 <= 1
 0 <= y_v60_okul_61 <= 1
 0 <= y_v60_okul_65 <= 1
 0 <= y_v60_okul_66 <= 1
 0 <= y_v60_okul_68 <= 1
 0 <= y_v60_okul_70 <= 1
 0 <= y_v61_melik_32 <= 1
 0 <= y_v61_melik_36 <= 1
 0 <= y_v61_melik_54 <= 1
 0 <= y_v61_melik_71 <= 1
 0 <= y_v61_melik_73 <= 1
 0 <= y_v61_melik_79 <= 1
 0 <= y_v61_okul_0 <= 1
 0 <= y_v61_okul_7 <= 1
 0 <= y_v61_okul_13 <= 1
 0 <= y_v61_okul_16 <= 1
 0 <= y_v61_okul_17 <= 1
 0 <= y_v61_okul_20 <= 1
 0 <= y_v61_okul_28 <= 1
 0 <= y_v61_okul_31 <= 1
 0 <= y_v61_okul_37 <= 1
 0 <= y_v61_okul_38 <= 1
 0 <= y_v61_okul_42 <= 1
 0 <= y_v61_okul_48 <= 1
 0 <= y_v61_okul_51 <= 1
 0 <= y_v61_okul_57 <= 1
 0 <= y_v61_okul_62 <= 1
 0 <= y_v61_okul_63 <= 1
 0 <= y_v62_melik_1 <= 1
 0 <= y_v62_melik_5 <= 1
 0 <= y_v62_melik_32 <= 1
 0 <= y_v62_melik_36 <= 1
 0 <= y_v62_melik_41 <= 1
 0 <= y_v62_melik_44 <= 1
 0 <= y_v62_melik_54 <= 1
 0 <= y_v62_melik_71 <= 1
 0 <= y_v62_melik_73 <= 1
 0 <= y_v62_melik_79 <= 1
 0 <= y_v62_okul_0 <= 1
 0 <= y_v62_okul_7 <= 1
 0 <= y_v62_okul_10 <= 1
 0 <= y_v62_okul_13 <= 1
 0 <= y_v62_okul_16 <= 1
 0 <= y_v62_okul_17 <= 1
 0 <= y_v62_okul_20 <= 1
 0 <= y_v62_okul_24 <= 1
 0 <= y_v62_okul_28 <= 1
 0 <= y_v62_okul_31 <= 1
 0 <= y_v62_okul_37 <= 1
 0 <= y_v62_okul_38 <= 1
 0 <= y_v62_okul_39 <= 1
 0 <= y_v62_okul_42 <= 1
 0 <= y_v62_okul_48 <= 1
 0 <= y_v62_okul_50 <= 1
 0 <= y_v62_okul_51 <= 1
 0 <= y_v62_okul_52 <= 1
 0 <= y_v62_okul_57 <= 1
 0 <= y_v62_okul_62 <= 1
 0 <= y_v62_okul_63 <= 1
 0 <= y_v62_okul_69 <= 1
 0 <= y_v63_melik_1 <= 1
 0 <= y_v63_melik_2 <= 1
 0 <= y_v63_melik_5 <= 1
 0 <= y_v63_melik_12 <= 1
 0 <= y_v63_melik_28 <= 1
 0 <= y_v63_melik_36 <= 1
 0 <= y_v63_melik_41 <= 1
 0 <= y_v63_melik_44 <= 1
 0 <= y_v63_melik_52 <= 1
 0 <= y_v63_melik_54 <= 1
 0 <= y_v63_melik_71 <= 1
 0 <= y_v63_melik_73 <= 1
 0 <= y_v63_okul_0 <= 1
 0 <= y_v63_okul_2 <= 1
 0 <= y_v63_okul_7 <= 1
 0 <= y_v63_okul_10 <= 1
 0 <= y_v63_okul_12 <= 1
 0 <= y_v63_okul_13 <= 1
 0 <= y_v63_okul_16 <= 1
 0 <= y_v63_okul_17 <= 1
 0 <= y_v63_okul_20 <= 1
 0 <= y_v63_okul_24 <= 1
 0 <= y_v63_okul_25 <= 1
 0 <= y_v63_okul_28 <= 1
 0 <= y_v63_okul_31 <= 1
 0 <= y_v63_okul_37 <= 1
 0 <= y_v63_okul_38 <= 1
 0 <= y_v63_okul_39 <= 1
 0 <= y_v63_okul_41 <= 1
 0 <= y_v63_okul_42 <= 1
 0 <= y_v63_okul_43 <= 1
 0 <= y_v63_okul_48 <= 1
 0 <= y_v63_okul_50 <= 1
 0 <= y_v63_okul_51 <= 1
 0 <= y_v63_okul_52 <= 1
 0 <= y_v63_okul_54 <= 1
 0 <= y_v63_okul_57 <= 1
 0 <= y_v63_okul_62 <= 1
 0 <= y_v63_okul_63 <= 1
 0 <= y_v63_okul_69 <= 1
 0 <= y_v64_melik_1 <= 1
 0 <= y_v64_melik_2 <= 1
 0 <= y_v64_melik_12 <= 1
 0 <= y_v64_melik_21 <= 1
 0 <= y_v64_melik_28 <= 1
 0 <= y_v64_melik_41 <= 1
 0 <= y_v64_melik_52 <= 1
 0 <= y_v64_melik_62 <= 1
 0 <= y_v64_melik_71 <= 1
 0 <= y_v64_melik_73 <= 1
 0 <= y_v64_melik_78 <= 1
 0 <= y_v64_melik_80 <= 1
 0 <= y_v64_okul_0 <= 1
 0 <= y_v64_okul_2 <= 1
 0 <= y_v64_okul_7 <= 1
 0 <= y_v64_okul_10 <= 1
 0 <= y_v64_okul_12 <= 1
 0 <= y_v64_okul_13 <= 1
 0 <= y_v64_okul_16 <= 1
 0 <= y_v64_okul_17 <= 1
 0 <= y_v64_okul_20 <= 1
 0 <= y_v64_okul_24 <= 1
 0 <= y_v64_okul_25 <= 1
 0 <= y_v64_okul_27 <= 1
 0 <= y_v64_okul_28 <= 1
 0 <= y_v64_okul_31 <= 1
 0 <= y_v64_okul_32 <= 1
 0 <= y_v64_okul_37 <= 1
 0 <= y_v64_okul_38 <= 1
 0 <= y_v64_okul_39 <= 1
 0 <= y_v64_okul_41 <= 1
 0 <= y_v64_okul_42 <= 1
 0 <= y_v64_okul_43 <= 1
 0 <= y_v64_okul_45 <= 1
 0 <= y_v64_okul_48 <= 1
 0 <= y_v64_okul_49 <= 1
 0 <= y_v64_okul_50 <= 1
 0 <= y_v64_okul_51 <= 1
 0 <= y_v64_okul_52 <= 1
 0 <= y_v64_okul_53 <= 1
 0 <= y_v64_okul_54 <= 1
 0 <= y_v64_okul_57 <= 1
 0 <= y_v64_okul_62 <= 1
 0 <= y_v64_okul_63 <= 1
 0 <= y_v64_okul_68 <= 1
 0 <= y_v64_okul_69 <= 1
 0 <= y_v65_melik_1 <= 1
 0 <= y_v65_melik_10 <= 1
 0 <= y_v65_melik_21 <= 1
 0 <= y_v65_melik_28 <= 1
 0 <= y_v65_melik_35 <= 1
 0 <= y_v65_melik_39 <= 1
 0 <= y_v65_melik_41 <= 1
 0 <= y_v65_melik_52 <= 1
 0 <= y_v65_melik_62 <= 1
 0 <= y_v65_melik_69 <= 1
 0 <= y_v65_melik_78 <= 1
 0 <= y_v65_melik_80 <= 1
 0 <= y_v65_okul_0 <= 1
 0 <= y_v65_okul_2 <= 1
 0 <= y_v65_okul_6 <= 1
 0 <= y_v65_okul_7 <= 1
 0 <= y_v65_okul_8 <= 1
 0 <= y_v65_okul_10 <= 1
 0 <= y_v65_okul_12 <= 1
 0 <= y_v65_okul_13 <= 1
 0 <= y_v65_okul_20 <= 1
 0 <= y_v65_okul_24 <= 1
 0 <= y_v65_okul_25 <= 1
 0 <= y_v65_okul_27 <= 1
 0 <= y_v65_okul_28 <= 1
 0 <= y_v65_okul_31 <= 1
 0 <= y_v65_okul_32 <= 1
 0 <= y_v65_okul_34 <= 1
 0 <= y_v65_okul_37 <= 1
 0 <= y_v65_okul_38 <= 1
 0 <= y_v65_okul_39 <= 1
 0 <= y_v65_okul_41 <= 1
 0 <= y_v65_okul_42 <= 1
 0 <= y_v65_okul_43 <= 1
 0 <= y_v65_okul_45 <= 1
 0 <= y_v65_okul_48 <= 1
 0 <= y_v65_okul_49 <= 1
 0 <= y_v65_okul_50 <= 1
 0 <= y_v65_okul_51 <= 1
 0 <= y_v65_okul_52 <= 1
 0 <= y_v65_okul_53 <= 1
 0 <= y_v65_okul_54 <= 1
 0 <= y_v65_okul_57 <= 1
 0 <= y_v65_okul_59 <= 1
 0 <= y_v65_okul_62 <= 1
 0 <= y_v65_okul_63 <= 1
 0 <= y_v65_okul_64 <= 1
 0 <= y_v65_okul_68 <= 1
 0 <= y_v65_okul_69 <= 1
 0 <= y_v65_okul_70 <= 1
 0 <= y_v66_melik_4 <= 1
 0 <= y_v66_melik_10 <= 1
 0 <= y_v66_melik_11 <= 1
 0 <= y_v66_melik_21 <= 1
 0 <= y_v66_melik_28 <= 1
 0 <= y_v66_melik_35 <= 1
 0 <= y_v66_melik_37 <= 1
 0 <= y_v66_melik_39 <= 1
 0 <= y_v66_melik_52 <= 1
 0 <= y_v66_melik_63 <= 1
 0 <= y_v66_melik_69 <= 1
 0 <= y_v66_melik_78 <= 1
 0 <= y_v66_okul_0 <= 1
 0 <= y_v66_okul_2 <= 1
 0 <= y_v66_okul_3 <= 1
 0 <= y_v66_okul_4 <= 1
 0 <= y_v66_okul_6 <= 1
 0 <= y_v66_okul_7 <= 1
 0 <= y_v66_okul_8 <= 1
 0 <= y_v66_okul_10 <= 1
 0 <= y_v66_okul_11 <= 1
 0 <= y_v66_okul_12 <= 1
 0 <= y_v66_okul_13 <= 1
 0 <= y_v66_okul_19 <= 1
 0 <= y_v66_okul_24 <= 1
 0 <= y_v66_okul_25 <= 1
 0 <= y_v66_okul_27 <= 1
 0 <= y_v66_okul_31 <= 1
 0 <= y_v66_okul_32 <= 1
 0 <= y_v66_okul_34 <= 1
 0 <= y_v66_okul_37 <= 1
 0 <= y_v66_okul_38 <= 1
 0 <= y_v66_okul_39 <= 1
 0 <= y_v66_okul_41 <= 1
 0 <= y_v66_okul_42 <= 1
 0 <= y_v66_okul_43 <= 1
 0 <= y_v66_okul_44 <= 1
 0 <= y_v66_okul_45 <= 1
 0 <= y_v66_okul_49 <= 1
 0 <= y_v66_okul_50 <= 1
 0 <= y_v66_okul_51 <= 1
 0 <= y_v66_okul_52 <= 1
 0 <= y_v66_okul_53 <= 1
 0 <= y_v66_okul_54 <= 1
 0 <= y_v66_okul_59 <= 1
 0 <= y_v66_okul_61 <= 1
 0 <= y_v66_okul_64 <= 1
 0 <= y_v66_okul_68 <= 1
 0 <= y_v66_okul_69 <= 1
 0 <= y_v66_okul_70 <= 1
 0 <= y_v67_melik_4 <= 1
 0 <= y_v67_melik_6 <= 1
 0 <= y_v67_melik_7 <= 1
 0 <= y_v67_melik_9 <= 1
 0 <= y_v67_melik_10 <= 1
 0 <= y_v67_melik_11 <= 1
 0 <= y_v67_melik_21 <= 1
 0 <= y_v67_melik_37 <= 1
 0 <= y_v67_melik_39 <= 1
 0 <= y_v67_melik_49 <= 1
 0 <= y_v67_melik_63 <= 1
 0 <= y_v67_melik_78 <= 1
 0 <= y_v67_okul_0 <= 1
 0 <= y_v67_okul_2 <= 1
 0 <= y_v67_okul_3 <= 1
 0 <= y_v67_okul_4 <= 1
 0 <= y_v67_okul_6 <= 1
 0 <= y_v67_okul_8 <= 1
 0 <= y_v67_okul_10 <= 1
 0 <= y_v67_okul_11 <= 1
 0 <= y_v67_okul_12 <= 1
 0 <= y_v67_okul_13 <= 1
 0 <= y_v67_okul_19 <= 1
 0 <= y_v67_okul_23 <= 1
 0 <= y_v67_okul_24 <= 1
 0 <= y_v67_okul_25 <= 1
 0 <= y_v67_okul_27 <= 1
 0 <= y_v67_okul_32 <= 1
 0 <= y_v67_okul_34 <= 1
 0 <= y_v67_okul_37 <= 1
 0 <= y_v67_okul_39 <= 1
 0 <= y_v67_okul_41 <= 1
 0 <= y_v67_okul_42 <= 1
 0 <= y_v67_okul_43 <= 1
 0 <= y_v67_okul_44 <= 1
 0 <= y_v67_okul_45 <= 1
 0 <= y_v67_okul_49 <= 1
 0 <= y_v67_okul_52 <= 1
 0 <= y_v67_okul_53 <= 1
 0 <= y_v67_okul_54 <= 1
 0 <= y_v67_okul_59 <= 1
 0 <= y_v67_okul_61 <= 1
 0 <= y_v67_okul_64 <= 1
 0 <= y_v67_okul_66 <= 1
 0 <= y_v67_okul_68 <= 1
 0 <= y_v67_okul_70 <= 1
 0 <= y_v68_melik_6 <= 1
 0 <= y_v68_melik_7 <= 1
 0 <= y_v68_melik_9 <= 1
 0 <= y_v68_melik_10 <= 1
 0 <= y_v68_melik_11 <= 1
 0 <= y_v68_melik_13 <= 1
 0 <= y_v68_melik_23 <= 1
 0 <= y_v68_melik_39 <= 1
 0 <= y_v68_melik_47 <= 1
 0 <= y_v68_melik_49 <= 1
 0 <= y_v68_melik_63 <= 1
 0 <= y_v68_melik_64 <= 1
 0 <= y_v68_okul_3 <= 1
 0 <= y_v68_okul_4 <= 1
 0 <= y_v68_okul_6 <= 1
 0 <= y_v68_okul_8 <= 1
 0 <= y_v68_okul_10 <= 1
 0 <= y_v68_okul_11 <= 1
 0 <= y_v68_okul_12 <= 1
 0 <= y_v68_okul_19 <= 1
 0 <= y_v68_okul_23 <= 1
 0 <= y_v68_okul_24 <= 1
 0 <= y_v68_okul_25 <= 1
 0 <= y_v68_okul_27 <= 1
 0 <= y_v68_okul_32 <= 1
 0 <= y_v68_okul_34 <= 1
 0 <= y_v68_okul_39 <= 1
 0 <= y_v68_okul_41 <= 1
 0 <= y_v68_okul_44 <= 1
 0 <= y_v68_okul_45 <= 1
 0 <= y_v68_okul_49 <= 1
 0 <= y_v68_okul_52 <= 1
 0 <= y_v68_okul_53 <= 1
 0 <= y_v68_okul_54 <= 1
 0 <= y_v68_okul_59 <= 1
 0 <= y_v68_okul_61 <= 1
 0 <= y_v68_okul_64 <= 1
 0 <= y_v68_okul_66 <= 1
 0 <= y_v68_okul_68 <= 1
 0 <= y_v68_okul_70 <= 1
 0 <= y_v69_melik_6 <= 1
 0 <= y_v69_melik_11 <= 1
 0 <= y_v69_melik_13 <= 1
 0 <= y_v69_melik_23 <= 1
 0 <= y_v69_melik_33 <= 1
 0 <= y_v69_melik_47 <= 1
 0 <= y_v69_melik_49 <= 1
 0 <= y_v69_melik_63 <= 1
 0 <= y_v69_melik_64 <= 1
 0 <= y_v69_melik_68 <= 1
 0 <= y_v69_okul_3 <= 1
 0 <= y_v69_okul_4 <= 1
 0 <= y_v69_okul_6 <= 1
 0 <= y_v69_okul_8 <= 1
 0 <= y_v69_okul_11 <= 1
 0 <= y_v69_okul_12 <= 1
 0 <= y_v69_okul_19 <= 1
 0 <= y_v69_okul_23 <= 1
 0 <= y_v69_okul_25 <= 1
 0 <= y_v69_okul_32 <= 1
 0 <= y_v69_okul_34 <= 1
 0 <= y_v69_okul_41 <= 1
 0 <= y_v69_okul_44 <= 1
 0 <= y_v69_okul_45 <= 1
 0 <= y_v69_okul_49 <= 1
 0 <= y_v69_okul_54 <= 1
 0 <= y_v69_okul_59 <= 1
 0 <= y_v69_okul_61 <= 1
 0 <= y_v69_okul_64 <= 1
 0 <= y_v69_okul_66 <= 1
 0 <= y_v69_okul_68 <= 1
 0 <= y_v69_okul_70 <= 1
 0 <= y_v70_melik_6 <= 1
 0 <= y_v70_melik_23 <= 1
 0 <= y_v70_melik_33 <= 1
 0 <= y_v70_melik_49 <= 1
 0 <= y_v70_melik_64 <= 1
 0 <= y_v70_melik_68 <= 1
 0 <= y_v70_okul_3 <= 1
 0 <= y_v70_okul_4 <= 1
 0 <= y_v70_okul_6 <= 1
 0 <= y_v70_okul_8 <= 1
 0 <= y_v70_okul_11 <= 1
 0 <= y_v70_okul_19 <= 1
 0 <= y_v70_okul_23 <= 1
 0 <= y_v70_okul_32 <= 1
 0 <= y_v70_okul_44 <= 1
 0 <= y_v70_okul_45 <= 1
 0 <= y_v70_okul_49 <= 1
 0 <= y_v70_okul_59 <= 1
 0 <= y_v70_okul_61 <= 1
 0 <= y_v70_okul_66 <= 1
 0 <= y_v70_okul_68 <= 1
 0 <= y_v70_okul_70 <= 1
 0 <= y_v71_melik_5 <= 1
 0 <= y_v71_melik_32 <= 1
 0 <= y_v71_melik_36 <= 1
 0 <= y_v71_melik_54 <= 1
 0 <= y_v71_melik_58 <= 1
 0 <= y_v71_melik_73 <= 1
 0 <= y_v71_okul_7 <= 1
 0 <= y_v71_okul_13 <= 1
 0 <= y_v71_okul_17 <= 1
 0 <= y_v71_okul_20 <= 1
 0 <= y_v71_okul_28 <= 1
 0 <= y_v71_okul_31 <= 1
 0 <= y_v71_okul_37 <= 1
 0 <= y_v71_okul_38 <= 1
 0 <= y_v71_okul_42 <= 1
 0 <= y_v71_okul_48 <= 1
 0 <= y_v71_okul_50 <= 1
 0 <= y_v71_okul_51 <= 1
 0 <= y_v71_okul_62 <= 1
 0 <= y_v71_okul_63 <= 1
 0 <= y_v72_melik_1 <= 1
 0 <= y_v72_melik_2 <= 1
 0 <= y_v72_melik_5 <= 1
 0 <= y_v72_melik_14 <= 1
 0 <= y_v72_melik_32 <= 1
 0 <= y_v72_melik_36 <= 1
 0 <= y_v72_melik_54 <= 1
 0 <= y_v72_melik_58 <= 1
 0 <= y_v72_melik_71 <= 1
 0 <= y_v72_melik_73 <= 1
 0 <= y_v72_okul_0 <= 1
 0 <= y_v72_okul_7 <= 1
 0 <= y_v72_okul_10 <= 1
 0 <= y_v72_okul_13 <= 1
 0 <= y_v72_okul_17 <= 1
 0 <= y_v72_okul_20 <= 1
 0 <= y_v72_okul_24 <= 1
 0 <= y_v72_okul_28 <= 1
 0 <= y_v72_okul_31 <= 1
 0 <= y_v72_okul_37 <= 1
 0 <= y_v72_okul_38 <= 1
 0 <= y_v72_okul_39 <= 1
 0 <= y_v72_okul_42 <= 1
 0 <= y_v72_okul_43 <= 1
 0 <= y_v72_okul_48 <= 1
 0 <= y_v72_okul_50 <= 1
 0 <= y_v72_okul_51 <= 1
 0 <= y_v72_okul_62 <= 1
 0 <= y_v72_okul_63 <= 1
 0 <= y_v73_melik_1 <= 1
 0 <= y_v73_melik_2 <= 1
 0 <= y_v73_melik_5 <= 1
 0 <= y_v73_melik_14 <= 1
 0 <= y_v73_melik_15 <= 1
 0 <= y_v73_melik_32 <= 1
 0 <= y_v73_melik_36 <= 1
 0 <= y_v73_melik_41 <= 1
 0 <= y_v73_melik_52 <= 1
 0 <= y_v73_melik_62 <= 1
 0 <= y_v73_melik_71 <= 1
 0 <= y_v73_melik_73 <= 1
 0 <= y_v73_okul_0 <= 1
 0 <= y_v73_okul_7 <= 1
 0 <= y_v73_okul_10 <= 1
 0 <= y_v73_okul_12 <= 1
 0 <= y_v73_okul_13 <= 1
 0 <= y_v73_okul_17 <= 1
 0 <= y_v73_okul_20 <= 1
 0 <= y_v73_okul_24 <= 1
 0 <= y_v73_okul_25 <= 1
 0 <= y_v73_okul_27 <= 1
 0 <= y_v73_okul_28 <= 1
 0 <= y_v73_okul_31 <= 1
 0 <= y_v73_okul_37 <= 1
 0 <= y_v73_okul_38 <= 1
 0 <= y_v73_okul_39 <= 1
 0 <= y_v73_okul_42 <= 1
 0 <= y_v73_okul_43 <= 1
 0 <= y_v73_okul_48 <= 1
 0 <= y_v73_okul_50 <= 1
 0 <= y_v73_okul_51 <= 1
 0 <= y_v73_okul_52 <= 1
 0 <= y_v73_okul_54 <= 1
 0 <= y_v73_okul_62 <= 1
 0 <= y_v73_okul_63 <= 1
 0 <= y_v74_melik_1 <= 1
 0 <= y_v74_melik_2 <= 1
 0 <= y_v74_melik_5 <= 1
 0 <= y_v74_melik_15 <= 1
 0 <= y_v74_melik_21 <= 1
 0 <= y_v74_melik_25 <= 1
 0 <= y_v74_melik_28 <= 1
 0 <= y_v74_melik_35 <= 1
 0 <= y_v74_melik_41 <= 1
 0 <= y_v74_melik_52 <= 1
 0 <= y_v74_melik_62 <= 1
 0 <= y_v74_melik_73 <= 1
 0 <= y_v74_okul_0 <= 1
 0 <= y_v74_okul_7 <= 1
 0 <= y_v74_okul_10 <= 1
 0 <= y_v74_okul_12 <= 1
 0 <= y_v74_okul_13 <= 1
 0 <= y_v74_okul_17 <= 1
 0 <= y_v74_okul_20 <= 1
 0 <= y_v74_okul_24 <= 1
 0 <= y_v74_okul_25 <= 1
 0 <= y_v74_okul_27 <= 1
 0 <= y_v74_okul_28 <= 1
 0 <= y_v74_okul_31 <= 1
 0 <= y_v74_okul_32 <= 1
 0 <= y_v74_okul_37 <= 1
 0 <= y_v74_okul_38 <= 1
 0 <= y_v74_okul_39 <= 1
 0 <= y_v74_okul_41 <= 1
 0 <= y_v74_okul_42 <= 1
 0 <= y_v74_okul_43 <= 1
 0 <= y_v74_okul_45 <= 1
 0 <= y_v74_okul_48 <= 1
 0 <= y_v74_okul_49 <= 1
 0 <= y_v74_okul_50 <= 1
 0 <= y_v74_okul_51 <= 1
 0 <= y_v74_okul_52 <= 1
 0 <= y_v74_okul_54 <= 1
 0 <= y_v74_okul_62 <= 1
 0 <= y_v74_okul_63 <= 1
 0 <= y_v74_okul_64 <= 1
 0 <= y_v75_melik_1 <= 1
 0 <= y_v75_melik_2 <= 1
 0 <= y_v75_melik_4 <= 1
 0 <= y_v75_melik_8 <= 1
 0 <= y_v75_melik_21 <= 1
 0 <= y_v75_melik_25 <= 1
 0 <= y_v75_melik_28 <= 1
 0 <= y_v75_melik_35 <= 1
 0 <= y_v75_melik_39 <= 1
 0 <= y_v75_melik_52 <= 1
 0 <= y_v75_melik_62 <= 1
 0 <= y_v75_melik_78 <= 1
 0 <= y_v75_okul_0 <= 1
 0 <= y_v75_okul_7 <= 1
 0 <= y_v75_okul_8 <= 1
 0 <= y_v75_okul_10 <= 1
 0 <= y_v75_okul_12 <= 1
 0 <= y_v75_okul_13 <= 1
 0 <= y_v75_okul_17 <= 1
 0 <= y_v75_okul_20 <= 1
 0 <= y_v75_okul_24 <= 1
 0 <= y_v75_okul_25 <= 1
 0 <= y_v75_okul_27 <= 1
 0 <= y_v75_okul_28 <= 1
 0 <= y_v75_okul_31 <= 1
 0 <= y_v75_okul_32 <= 1
 0 <= y_v75_okul_37 <= 1
 0 <= y_v75_okul_38 <= 1
 0 <= y_v75_okul_39 <= 1
 0 <= y_v75_okul_41 <= 1
 0 <= y_v75_okul_42 <= 1
 0 <= y_v75_okul_43 <= 1
 0 <= y_v75_okul_44 <= 1
 0 <= y_v75_okul_45 <= 1
 0 <= y_v75_okul_48 <= 1
 0 <= y_v75_okul_49 <= 1
 0 <= y_v75_okul_50 <= 1
 0 <= y_v75_okul_51 <= 1
 0 <= y_v75_okul_52 <= 1
 0 <= y_v75_okul_54 <= 1
 0 <= y_v75_okul_59 <= 1
 0 <= y_v75_okul_63 <= 1
 0 <= y_v75_okul_64 <= 1
 0 <= y_v75_okul_68 <= 1
 0 <= y_v75_okul_70 <= 1
 0 <= y_v76_melik_3 <= 1
 0 <= y_v76_melik_4 <= 1
 0 <= y_v76_melik_8 <= 1
 0 <= y_v76_melik_9 <= 1
 0 <= y_v76_melik_10 <= 1
 0 <= y_v76_melik_11 <= 1
 0 <= y_v76_melik_21 <= 1
 0 <= y_v76_melik_35 <= 1
 0 <= y_v76_melik_39 <= 1
 0 <= y_v76_melik_52 <= 1
 0 <= y_v76_melik_62 <= 1
 0 <= y_v76_melik_78 <= 1
 0 <= y_v76_okul_0 <= 1
 0 <= y_v76_okul_4 <= 1
 0 <= y_v76_okul_6 <= 1
 0 <= y_v76_okul_7 <= 1
 0 <= y_v76_okul_8 <= 1
 0 <= y_v76_okul_10 <= 1
 0 <= y_v76_okul_11 <= 1
 0 <= y_v76_okul_12 <= 1
 0 <= y_v76_okul_13 <= 1
 0 <= y_v76_okul_23 <= 1
 0 <= y_v76_okul_24 <= 1
 0 <= y_v76_okul_25 <= 1
 0 <= y_v76_okul_27 <= 1
 0 <= y_v76_okul_31 <= 1
 0 <= y_v76_okul_32 <= 1
 0 <= y_v76_okul_37 <= 1
 0 <= y_v76_okul_38 <= 1
 0 <= y_v76_okul_39 <= 1
 0 <= y_v76_okul_41 <= 1
 0 <= y_v76_okul_42 <= 1
 0 <= y_v76_okul_43 <= 1
 0 <= y_v76_okul_44 <= 1
 0 <= y_v76_okul_45 <= 1
 0 <= y_v76_okul_48 <= 1
 0 <= y_v76_okul_49 <= 1
 0 <= y_v76_okul_50 <= 1
 0 <= y_v76_okul_52 <= 1
 0 <= y_v76_okul_54 <= 1
 0 <= y_v76_okul_59 <= 1
 0 <= y_v76_okul_61 <= 1
 0 <= y_v76_okul_64 <= 1
 0 <= y_v76_okul_68 <= 1
 0 <= y_v76_okul_70 <= 1
 0 <= y_v77_melik_3 <= 1
 0 <= y_v77_melik_4 <= 1
 0 <= y_v77_melik_6 <= 1
 0 <= y_v77_melik_9 <= 1
 0 <= y_v77_melik_10 <= 1
 0 <= y_v77_melik_11 <= 1
 0 <= y_v77_melik_13 <= 1
 0 <= y_v77_melik_21 <= 1
 0 <= y_v77_melik_35 <= 1
 0 <= y_v77_melik_39 <= 1
 0 <= y_v77_melik_63 <= 1
 0 <= y_v77_melik_75 <= 1
 0 <= y_v77_okul_3 <= 1
 0 <= y_v77_okul_4 <= 1
 0 <= y_v77_okul_6 <= 1
 0 <= y_v77_okul_8 <= 1
 0 <= y_v77_okul_10 <= 1
 0 <= y_v77_okul_11 <= 1
 0 <= y_v77_okul_12 <= 1
 0 <= y_v77_okul_13 <= 1
 0 <= y_v77_okul_23 <= 1
 0 <= y_v77_okul_24 <= 1
 0 <= y_v77_okul_25 <= 1
 0 <= y_v77_okul_27 <= 1
 0 <= y_v77_okul_32 <= 1
 0 <= y_v77_okul_37 <= 1
 0 <= y_v77_okul_39 <= 1
 0 <= y_v77_okul_41 <= 1
 0 <= y_v77_okul_42 <= 1
 0 <= y_v77_okul_43 <= 1
 0 <= y_v77_okul_44 <= 1
 0 <= y_v77_okul_45 <= 1
 0 <= y_v77_okul_49 <= 1
 0 <= y_v77_okul_50 <= 1
 0 <= y_v77_okul_52 <= 1
 0 <= y_v77_okul_54 <= 1
 0 <= y_v77_okul_59 <= 1
 0 <= y_v77_okul_61 <= 1
 0 <= y_v77_okul_64 <= 1
 0 <= y_v77_okul_68 <= 1
 0 <= y_v77_okul_70 <= 1
 0 <= y_v78_melik_4 <= 1
 0 <= y_v78_melik_6 <= 1
 0 <= y_v78_melik_9 <= 1
 0 <= y_v78_melik_11 <= 1
 0 <= y_v78_melik_13 <= 1
 0 <= y_v78_melik_16 <= 1
 0 <= y_v78_melik_23 <= 1
 0 <= y_v78_melik_33 <= 1
 0 <= y_v78_melik_39 <= 1
 0 <= y_v78_melik_49 <= 1
 0 <= y_v78_melik_63 <= 1
 0 <= y_v78_melik_75 <= 1
 0 <= y_v78_okul_3 <= 1
 0 <= y_v78_okul_4 <= 1
 0 <= y_v78_okul_6 <= 1
 0 <= y_v78_okul_8 <= 1
 0 <= y_v78_okul_10 <= 1
 0 <= y_v78_okul_11 <= 1
 0 <= y_v78_okul_12 <= 1
 0 <= y_v78_okul_23 <= 1
 0 <= y_v78_okul_24 <= 1
 0 <= y_v78_okul_25 <= 1
 0 <= y_v78_okul_27 <= 1
 0 <= y_v78_okul_32 <= 1
 0 <= y_v78_okul_39 <= 1
 0 <= y_v78_okul_41 <= 1
 0 <= y_v78_okul_43 <= 1
 0 <= y_v78_okul_44 <= 1
 0 <= y_v78_okul_45 <= 1
 0 <= y_v78_okul_49 <= 1
 0 <= y_v78_okul_54 <= 1
 0 <= y_v78_okul_59 <= 1
 0 <= y_v78_okul_61 <= 1
 0 <= y_v78_okul_64 <= 1
 0 <= y_v78_okul_68 <= 1
 0 <= y_v78_okul_70 <= 1
 0 <= y_v79_melik_6 <= 1
 0 <= y_v79_melik_9 <= 1
 0 <= y_v79_melik_11 <= 1
 0 <= y_v79_melik_13 <= 1
 0 <= y_v79_melik_16 <= 1
 0 <= y_v79_melik_17 <= 1
 0 <= y_v79_melik_23 <= 1
 0 <= y_v79_melik_33 <= 1
 0 <= y_v79_melik_49 <= 1
 0 <= y_v79_melik_64 <= 1
 0 <= y_v79_okul_3 <= 1
 0 <= y_v79_okul_4 <= 1
 0 <= y_v79_okul_6 <= 1
 0 <= y_v79_okul_8 <= 1
 0 <= y_v79_okul_11 <= 1
 0 <= y_v79_okul_12 <= 1
 0 <= y_v79_okul_23 <= 1
 0 <= y_v79_okul_25 <= 1
 0 <= y_v79_okul_27 <= 1
 0 <= y_v79_okul_32 <= 1
 0 <= y_v79_okul_44 <= 1
 0 <= y_v79_okul_45 <= 1
 0 <= y_v79_okul_49 <= 1
 0 <= y_v79_okul_54 <= 1
 0 <= y_v79_okul_59 <= 1
 0 <= y_v79_okul_61 <= 1
 0 <= y_v79_okul_64 <= 1
 0 <= y_v79_okul_68 <= 1
 0 <= y_v79_okul_70 <= 1
 0 <= y_v80_melik_6 <= 1
 0 <= y_v80_melik_13 <= 1
 0 <= y_v80_melik_17 <= 1
 0 <= y_v80_melik_23 <= 1
 0 <= y_v80_melik_33 <= 1
 0 <= y_v80_melik_64 <= 1
 0 <= y_v80_okul_3 <= 1
 0 <= y_v80_okul_4 <= 1
 0 <= y_v80_okul_6 <= 1
 0 <= y_v80_okul_8 <= 1
 0 <= y_v80_okul_11 <= 1
 0 <= y_v80_okul_23 <= 1
 0 <= y_v80_okul_32 <= 1
 0 <= y_v80_okul_44 <= 1
 0 <= y_v80_okul_45 <= 1
 0 <= y_v80_okul_49 <= 1
 0 <= y_v80_okul_59 <= 1
 0 <= y_v80_okul_61 <= 1
 0 <= y_v80_okul_64 <= 1
 0 <= y_v80_okul_70 <= 1
 0 <= y_v81_melik_5 <= 1
 0 <= y_v81_melik_14 <= 1
 0 <= y_v81_melik_32 <= 1
 0 <= y_v81_melik_36 <= 1
 0 <= y_v81_melik_58 <= 1
 0 <= y_v81_okul_7 <= 1
 0 <= y_v81_okul_13 <= 1
 0 <= y_v81_okul_17 <= 1
 0 <= y_v81_okul_20 <= 1
 0 <= y_v81_okul_28 <= 1
 0 <= y_v81_okul_31 <= 1
 0 <= y_v81_okul_38 <= 1
 0 <= y_v81_okul_42 <= 1
 0 <= y_v81_okul_48 <= 1
 0 <= y_v81_okul_50 <= 1
 0 <= y_v81_okul_63 <= 1
 0 <= y_v82_melik_2 <= 1
 0 <= y_v82_melik_5 <= 1
 0 <= y_v82_melik_14 <= 1
 0 <= y_v82_melik_15 <= 1
 0 <= y_v82_melik_32 <= 1
 0 <= y_v82_melik_36 <= 1
 0 <= y_v82_melik_58 <= 1
 0 <= y_v82_melik_73 <= 1
 0 <= y_v82_okul_7 <= 1
 0 <= y_v82_okul_10 <= 1
 0 <= y_v82_okul_13 <= 1
 0 <= y_v82_okul_17 <= 1
 0 <= y_v82_okul_20 <= 1
 0 <= y_v82_okul_24 <= 1
 0 <= y_v82_okul_28 <= 1
 0 <= y_v82_okul_31 <= 1
 0 <= y_v82_okul_37 <= 1
 0 <= y_v82_okul_38 <= 1
 0 <= y_v82_okul_42 <= 1
 0 <= y_v82_okul_43 <= 1
 0 <= y_v82_okul_48 <= 1
 0 <= y_v82_okul_50 <= 1
 0 <= y_v82_okul_63 <= 1
 0 <= y_v83_melik_1 <= 1
 0 <= y_v83_melik_2 <= 1
 0 <= y_v83_melik_5 <= 1
 0 <= y_v83_melik_14 <= 1
 0 <= y_v83_melik_15 <= 1
 0 <= y_v83_melik_25 <= 1
 0 <= y_v83_melik_32 <= 1
 0 <= y_v83_melik_58 <= 1
 0 <= y_v83_melik_62 <= 1
 0 <= y_v83_melik_73 <= 1
 0 <= y_v83_okul_7 <= 1
 0 <= y_v83_okul_10 <= 1
 0 <= y_v83_okul_12 <= 1
 0 <= y_v83_okul_13 <= 1
 0 <= y_v83_okul_17 <= 1
 0 <= y_v83_okul_20 <= 1
 0 <= y_v83_okul_24 <= 1
 0 <= y_v83_okul_27 <= 1
 0 <= y_v83_okul_28 <= 1
 0 <= y_v83_okul_31 <= 1
 0 <= y_v83_okul_37 <= 1
 0 <= y_v83_okul_38 <= 1
 0 <= y_v83_okul_39 <= 1
 0 <= y_v83_okul_42 <= 1
 0 <= y_v83_okul_43 <= 1
 0 <= y_v83_okul_48 <= 1
 0 <= y_v83_okul_50 <= 1
 0 <= y_v83_okul_54 <= 1
 0 <= y_v83_okul_63 <= 1
 0 <= y_v84_melik_1 <= 1
 0 <= y_v84_melik_2 <= 1
 0 <= y_v84_melik_5 <= 1
 0 <= y_v84_melik_8 <= 1
 0 <= y_v84_melik_14 <= 1
 0 <= y_v84_melik_15 <= 1
 0 <= y_v84_melik_25 <= 1
 0 <= y_v84_melik_35 <= 1
 0 <= y_v84_melik_52 <= 1
 0 <= y_v84_melik_62 <= 1
 0 <= y_v84_okul_7 <= 1
 0 <= y_v84_okul_10 <= 1
 0 <= y_v84_okul_12 <= 1
 0 <= y_v84_okul_13 <= 1
 0 <= y_v84_okul_17 <= 1
 0 <= y_v84_okul_20 <= 1
 0 <= y_v84_okul_24 <= 1
 0 <= y_v84_okul_25 <= 1
 0 <= y_v84_okul_27 <= 1
 0 <= y_v84_okul_28 <= 1
 0 <= y_v84_okul_31 <= 1
 0 <= y_v84_okul_32 <= 1
 0 <= y_v84_okul_37 <= 1
 0 <= y_v84_okul_38 <= 1
 0 <= y_v84_okul_39 <= 1
 0 <= y_v84_okul_42 <= 1
 0 <= y_v84_okul_43 <= 1
 0 <= y_v84_okul_45 <= 1
 0 <= y_v84_okul_48 <= 1
 0 <= y_v84_okul_50 <= 1
 0 <= y_v84_okul_54 <= 1
 0 <= y_v84_okul_63 <= 1
 0 <= y_v84_okul_64 <= 1
 0 <= y_v85_melik_2 <= 1
 0 <= y_v85_melik_3 <= 1
 0 <= y_v85_melik_4 <= 1
 0 <= y_v85_melik_8 <= 1
 0 <= y_v85_melik_15 <= 1
 0 <= y_v85_melik_21 <= 1
 0 <= y_v85_melik_25 <= 1
 0 <= y_v85_melik_35 <= 1
 0 <= y_v85_melik_52 <= 1
 0 <= y_v85_melik_62 <= 1
 0 <= y_v85_okul_7 <= 1
 0 <= y_v85_okul_8 <= 1
 0 <= y_v85_okul_10 <= 1
 0 <= y_v85_okul_12 <= 1
 0 <= y_v85_okul_13 <= 1
 0 <= y_v85_okul_17 <= 1
 0 <= y_v85_okul_20 <= 1
 0 <= y_v85_okul_24 <= 1
 0 <= y_v85_okul_25 <= 1
 0 <= y_v85_okul_27 <= 1
 0 <= y_v85_okul_31 <= 1
 0 <= y_v85_okul_32 <= 1
 0 <= y_v85_okul_37 <= 1
 0 <= y_v85_okul_38 <= 1
 0 <= y_v85_okul_39 <= 1
 0 <= y_v85_okul_42 <= 1
 0 <= y_v85_okul_43 <= 1
 0 <= y_v85_okul_44 <= 1
 0 <= y_v85_okul_45 <= 1
 0 <= y_v85_okul_48 <= 1
 0 <= y_v85_okul_49 <= 1
 0 <= y_v85_okul_50 <= 1
 0 <= y_v85_okul_54 <= 1
 0 <= y_v85_okul_63 <= 1
 0 <= y_v85_okul_64 <= 1
 0 <= y_v85_okul_70 <= 1
 0 <= y_v86_melik_3 <= 1
 0 <= y_v86_melik_4 <= 1
 0 <= y_v86_melik_8 <= 1
 0 <= y_v86_melik_9 <= 1
 0 <= y_v86_melik_21 <= 1
 0 <= y_v86_melik_25 <= 1
 0 <= y_v86_melik_35 <= 1
 0 <= y_v86_melik_39 <= 1
 0 <= y_v86_melik_62 <= 1
 0 <= y_v86_melik_75 <= 1
 0 <= y_v86_okul_4 <= 1
 0 <= y_v86_okul_8 <= 1
 0 <= y_v86_okul_10 <= 1
 0 <= y_v86_okul_12 <= 1
 0 <= y_v86_okul_13 <= 1
 0 <= y_v86_okul_23 <= 1
 0 <= y_v86_okul_24 <= 1
 0 <= y_v86_okul_25 <= 1
 0 <= y_v86_okul_27 <= 1
 0 <= y_v86_okul_31 <= 1
 0 <= y_v86_okul_32 <= 1
 0 <= y_v86_okul_37 <= 1
 0 <= y_v86_okul_38 <= 1
 0 <= y_v86_okul_39 <= 1
 0 <= y_v86_okul_42 <= 1
 0 <= y_v86_okul_43 <= 1
 0 <= y_v86_okul_44 <= 1
 0 <= y_v86_okul_45 <= 1
 0 <= y_v86_okul_48 <= 1
 0 <= y_v86_okul_49 <= 1
 0 <= y_v86_okul_50 <= 1
 0 <= y_v86_okul_54 <= 1
 0 <= y_v86_okul_59 <= 1
 0 <= y_v86_okul_61 <= 1
 0 <= y_v86_okul_64 <= 1
 0 <= y_v86_okul_70 <= 1
 0 <= y_v87_melik_3 <= 1
 0 <= y_v87_melik_4 <= 1
 0 <= y_v87_melik_8 <= 1
 0 <= y_v87_melik_9 <= 1
 0 <= y_v87_melik_11 <= 1
 0 <= y_v87_melik_13 <= 1
 0 <= y_v87_melik_16 <= 1
 0 <= y_v87_melik_35 <= 1
 0 <= y_v87_melik_39 <= 1
 0 <= y_v87_melik_75 <= 1
 0 <= y_v87_okul_4 <= 1
 0 <= y_v87_okul_8 <= 1
 0 <= y_v87_okul_10 <= 1
 0 <= y_v87_okul_11 <= 1
 0 <= y_v87_okul_12 <= 1
 0 <= y_v87_okul_13 <= 1
 0 <= y_v87_okul_23 <= 1
 0 <= y_v87_okul_24 <= 1
 0 <= y_v87_okul_25 <= 1
 0 <= y_v87_okul_27 <= 1
 0 <= y_v87_okul_32 <= 1
 0 <= y_v87_okul_39 <= 1
 0 <= y_v87_okul_42 <= 1
 0 <= y_v87_okul_43 <= 1
 0 <= y_v87_okul_44 <= 1
 0 <= y_v87_okul_45 <= 1
 0 <= y_v87_okul_49 <= 1
 0 <= y_v87_okul_50 <= 1
 0 <= y_v87_okul_54 <= 1
 0 <= y_v87_okul_59 <= 1
 0 <= y_v87_okul_61 <= 1
 0 <= y_v87_okul_64 <= 1
 0 <= y_v87_okul_70 <= 1
 0 <= y_v88_melik_3 <= 1
 0 <= y_v88_melik_4 <= 1
 0 <= y_v88_melik_6 <= 1
 0 <= y_v88_melik_9 <= 1
 0 <= y_v88_melik_11 <= 1
 0 <= y_v88_melik_13 <= 1
 0 <= y_v88_melik_16 <= 1
 0 <= y_v88_melik_17 <= 1
 0 <= y_v88_melik_33 <= 1
 0 <= y_v88_melik_75 <= 1
 0 <= y_v88_okul_4 <= 1
 0 <= y_v88_okul_8 <= 1
 0 <= y_v88_okul_10 <= 1
 0 <= y_v88_okul_11 <= 1
 0 <= y_v88_okul_12 <= 1
 0 <= y_v88_okul_23 <= 1
 0 <= y_v88_okul_24 <= 1
 0 <= y_v88_okul_25 <= 1
 0 <= y_v88_okul_27 <= 1
 0 <= y_v88_okul_32 <= 1
 0 <= y_v88_okul_43 <= 1
 0 <= y_v88_okul_44 <= 1
 0 <= y_v88_okul_45 <= 1
 0 <= y_v88_okul_49 <= 1
 0 <= y_v88_okul_54 <= 1
 0 <= y_v88_okul_59 <= 1
 0 <= y_v88_okul_61 <= 1
 0 <= y_v88_okul_64 <= 1
 0 <= y_v88_okul_70 <= 1
 0 <= y_v89_melik_6 <= 1
 0 <= y_v89_melik_9 <= 1
 0 <= y_v89_melik_13 <= 1
 0 <= y_v89_melik_16 <= 1
 0 <= y_v89_melik_17 <= 1
 0 <= y_v89_melik_23 <= 1
 0 <= y_v89_melik_33 <= 1
 0 <= y_v89_melik_75 <= 1
 0 <= y_v89_okul_4 <= 1
 0 <= y_v89_okul_8 <= 1
 0 <= y_v89_okul_11 <= 1
 0 <= y_v89_okul_12 <= 1
 0 <= y_v89_okul_23 <= 1
 0 <= y_v89_okul_27 <= 1
 0 <= y_v89_okul_32 <= 1
 0 <= y_v89_okul_44 <= 1
 0 <= y_v89_okul_45 <= 1
 0 <= y_v89_okul_49 <= 1
 0 <= y_v89_okul_54 <= 1
 0 <= y_v89_okul_59 <= 1
 0 <= y_v89_okul_61 <= 1
 0 <= y_v89_okul_64 <= 1
 0 <= y_v89_okul_70 <= 1
 0 <= y_v90_melik_13 <= 1
 0 <= y_v90_melik_16 <= 1
 0 <= y_v90_melik_17 <= 1
 0 <= y_v90_melik_23 <= 1
 0 <= y_v90_melik_33 <= 1
 0 <= y_v90_okul_4 <= 1
 0 <= y_v90_okul_8 <= 1
 0 <= y_v90_okul_11 <= 1
 0 <= y_v90_okul_23 <= 1
 0 <= y_v90_okul_32 <= 1
 0 <= y_v90_okul_44 <= 1
 0 <= y_v90_okul_45 <= 1
 0 <= y_v90_okul_59 <= 1
 0 <= y_v90_okul_61 <= 1
 0 <= y_v90_okul_64 <= 1
 0 <= y_v90_okul_70 <= 1
 0 <= y_v91_melik_14 <= 1
 0 <= y_v91_melik_32 <= 1
 0 <= y_v91_melik_58 <= 1
 0 <= y_v91_okul_13 <= 1
 0 <= y_v91_okul_17 <= 1
 0 <= y_v91_okul_20 <= 1
 0 <= y_v91_okul_31 <= 1
 0 <= y_v91_okul_38 <= 1
 0 <= y_v91_okul_48 <= 1
 0 <= y_v91_okul_50 <= 1
 0 <= y_v91_okul_63 <= 1
 0 <= y_v92_melik_5 <= 1
 0 <= y_v92_melik_14 <= 1
 0 <= y_v92_melik_15 <= 1
 0 <= y_v92_melik_32 <= 1
 0 <= y_v92_melik_58 <= 1
 0 <= y_v92_okul_13 <= 1
 0 <= y_v92_okul_17 <= 1
 0 <= y_v92_okul_20 <= 1
 0 <= y_v92_okul_24 <= 1
 0 <= y_v92_okul_31 <= 1
 0 <= y_v92_okul_38 <= 1
 0 <= y_v92_okul_42 <= 1
 0 <= y_v92_okul_43 <= 1
 0 <= y_v92_okul_48 <= 1
 0 <= y_v92_okul_50 <= 1
 0 <= y_v92_okul_63 <= 1
 0 <= y_v93_melik_2 <= 1
 0 <= y_v93_melik_5 <= 1
 0 <= y_v93_melik_14 <= 1
 0 <= y_v93_melik_15 <= 1
 0 <= y_v93_melik_25 <= 1
 0 <= y_v93_melik_58 <= 1
 0 <= y_v93_okul_10 <= 1
 0 <= y_v93_okul_13 <= 1
 0 <= y_v93_okul_17 <= 1
 0 <= y_v93_okul_20 <= 1
 0 <= y_v93_okul_24 <= 1
 0 <= y_v93_okul_27 <= 1
 0 <= y_v93_okul_31 <= 1
 0 <= y_v93_okul_38 <= 1
 0 <= y_v93_okul_42 <= 1
 0 <= y_v93_okul_43 <= 1
 0 <= y_v93_okul_48 <= 1
 0 <= y_v93_okul_50 <= 1
 0 <= y_v93_okul_54 <= 1
 0 <= y_v93_okul_63 <= 1
 0 <= y_v94_melik_2 <= 1
 0 <= y_v94_melik_8 <= 1
 0 <= y_v94_melik_14 <= 1
 0 <= y_v94_melik_15 <= 1
 0 <= y_v94_melik_25 <= 1
 0 <= y_v94_melik_62 <= 1
 0 <= y_v94_okul_10 <= 1
 0 <= y_v94_okul_12 <= 1
 0 <= y_v94_okul_13 <= 1
 0 <= y_v94_okul_17 <= 1
 0 <= y_v94_okul_20 <= 1
 0 <= y_v94_okul_24 <= 1
 0 <= y_v94_okul_27 <= 1
 0 <= y_v94_okul_31 <= 1
 0 <= y_v94_okul_38 <= 1
 0 <= y_v94_okul_42 <= 1
 0 <= y_v94_okul_43 <= 1
 0 <= y_v94_okul_45 <= 1
 0 <= y_v94_okul_48 <= 1
 0 <= y_v94_okul_50 <= 1
 0 <= y_v94_okul_54 <= 1
 0 <= y_v94_okul_63 <= 1
 0 <= y_v94_okul_64 <= 1
 0 <= y_v95_melik_3 <= 1
 0 <= y_v95_melik_8 <= 1
 0 <= y_v95_melik_15 <= 1
 0 <= y_v95_melik_25 <= 1
 0 <= y_v95_melik_35 <= 1
 0 <= y_v95_melik_62 <= 1
 0 <= y_v95_okul_8 <= 1
 0 <= y_v95_okul_10 <= 1
 0 <= y_v95_okul_12 <= 1
 0 <= y_v95_okul_13 <= 1
 0 <= y_v95_okul_17 <= 1
 0 <= y_v95_okul_20 <= 1
 0 <= y_v95_okul_24 <= 1
 0 <= y_v95_okul_27 <= 1
 0 <= y_v95_okul_31 <= 1
 0 <= y_v95_okul_32 <= 1
 0 <= y_v95_okul_38 <= 1
 0 <= y_v95_okul_42 <= 1
 0 <= y_v95_okul_43 <= 1
 0 <= y_v95_okul_44 <= 1
 0 <= y_v95_okul_45 <= 1
 0 <= y_v95_okul_48 <= 1
 0 <= y_v95_okul_50 <= 1
 0 <= y_v95_okul_54 <= 1
 0 <= y_v95_okul_64 <= 1
 0 <= y_v96_melik_3 <= 1
 0 <= y_v96_melik_4 <= 1
 0 <= y_v96_melik_8 <= 1
 0 <= y_v96_melik_25 <= 1
 0 <= y_v96_melik_35 <= 1
 0 <= y_v96_melik_75 <= 1
 0 <= y_v96_okul_4 <= 1
 0 <= y_v96_okul_8 <= 1
 0 <= y_v96_okul_10 <= 1
 0 <= y_v96_okul_12 <= 1
 0 <= y_v96_okul_13 <= 1
 0 <= y_v96_okul_23 <= 1
 0 <= y_v96_okul_24 <= 1
 0 <= y_v96_okul_27 <= 1
 0 <= y_v96_okul_32 <= 1
 0 <= y_v96_okul_38 <= 1
 0 <= y_v96_okul_42 <= 1
 0 <= y_v96_okul_43 <= 1
 0 <= y_v96_okul_44 <= 1
 0 <= y_v96_okul_45 <= 1
 0 <= y_v96_okul_48 <= 1
 0 <= y_v96_okul_50 <= 1
 0 <= y_v96_okul_54 <= 1
 0 <= y_v96_okul_64 <= 1
 0 <= y_v96_okul_70 <= 1
 0 <= y_v97_melik_3 <= 1
 0 <= y_v97_melik_4 <= 1
 0 <= y_v97_melik_8 <= 1
 0 <= y_v97_melik_9 <= 1
 0 <= y_v97_melik_16 <= 1
 0 <= y_v97_melik_75 <= 1
 0 <= y_v97_okul_4 <= 1
 0 <= y_v97_okul_8 <= 1
 0 <= y_v97_okul_10 <= 1
 0 <= y_v97_okul_12 <= 1
 0 <= y_v97_okul_13 <= 1
 0 <= y_v97_okul_23 <= 1
 0 <= y_v97_okul_24 <= 1
 0 <= y_v97_okul_27 <= 1
 0 <= y_v97_okul_32 <= 1
 0 <= y_v97_okul_43 <= 1
 0 <= y_v97_okul_44 <= 1
 0 <= y_v97_okul_45 <= 1
 0 <= y_v97_okul_50 <= 1
 0 <= y_v97_okul_54 <= 1
 0 <= y_v97_okul_61 <= 1
 0 <= y_v97_okul_64 <= 1
 0 <= y_v97_okul_70 <= 1
 0 <= y_v98_melik_3 <= 1
 0 <= y_v98_melik_9 <= 1
 0 <= y_v98_melik_13 <= 1
 0 <= y_v98_melik_16 <= 1
 0 <= y_v98_melik_17 <= 1
 0 <= y_v98_melik_75 <= 1
 0 <= y_v98_okul_4 <= 1
 0 <= y_v98_okul_8 <= 1
 0 <= y_v98_okul_12 <= 1
 0 <= y_v98_okul_23 <= 1
 0 <= y_v98_okul_24 <= 1
 0 <= y_v98_okul_27 <= 1
 0 <= y_v98_okul_32 <= 1
 0 <= y_v98_okul_43 <= 1
 0 <= y_v98_okul_44 <= 1
 0 <= y_v98_okul_45 <= 1
 0 <= y_v98_okul_54 <= 1
 0 <= y_v98_okul_61 <= 1
 0 <= y_v98_okul_64 <= 1
 0 <= y_v98_okul_70 <= 1
 0 <= y_v99_melik_13 <= 1
 0 <= y_v99_melik_16 <= 1
 0 <= y_v99_melik_17 <= 1
 0 <= y_v99_melik_33 <= 1
 0 <= y_v99_melik_75 <= 1
 0 <= y_v99_okul_4 <= 1
 0 <= y_v99_okul_8 <= 1
 0 <= y_v99_okul_23 <= 1
 0 <= y_v99_okul_27 <= 1
 0 <= y_v99_okul_32 <= 1
 0 <= y_v99_okul_44 <= 1
 0 <= y_v99_okul_45 <= 1
 0 <= y_v99_okul_54 <= 1
 0 <= y_v99_okul_61 <= 1
 0 <= y_v99_okul_64 <= 1
 0 <= y_v99_okul_70 <= 1
 0 <= y_v100_melik_16 <= 1
 0 <= y_v100_melik_17 <= 1
 0 <= y_v100_melik_33 <= 1
 0 <= y_v100_okul_4 <= 1
 0 <= y_v100_okul_8 <= 1
 0 <= y_v100_okul_23 <= 1
 0 <= y_v100_okul_44 <= 1
 0 <= y_v100_okul_45 <= 1
 0 <= y_v100_okul_61 <= 1
 0 <= y_v100_okul_64 <= 1
 0 <= y_v100_okul_70 <= 1

Binaries
 x_v1_melik x_v1_okul x_v1_R x_v2_melik x_v2_okul x_v2_R x_v3_melik x_v3_okul
 x_v3_R x_v4_melik x_v4_okul x_v4_R x_v5_melik x_v5_okul x_v5_R x_v6_melik
 x_v6_okul x_v6_R x_v7_melik x_v7_okul x_v7_R x_v8_melik x_v8_okul x_v8_R
 x_v9_melik x_v9_okul x_v9_R x_v10_melik x_v10_okul x_v10_R x_v11_melik
 x_v11_okul x_v11_R x_v12_melik x_v12_okul x_v12_R x_v13_melik x_v13_okul
 x_v13_R x_v14_melik x_v14_okul x_v14_R x_v15_melik x_v15_okul x_v15_R
 x_v16_melik x_v16_okul x_v16_R x_v17_melik x_v17_okul x_v17_R x_v18_melik
 x_v18_okul x_v18_R x_v19_melik x_v19_okul x_v19_R x_v20_melik x_v20_okul
 x_v20_R x_v21_melik x_v21_okul x_v21_R x_v22_melik x_v22_okul x_v22_R
 x_v23_melik x_v23_okul x_v23_R x_v24_melik x_v24_okul x_v24_R x_v25_melik
 x_v25_okul x_v25_R x_v26_melik x_v26_okul x_v26_R x_v27_melik x_v27_okul
 x_v27_R x_v28_melik x_v28_okul x_v28_R x_v29_melik x_v29_okul x_v29_R
 x_v30_melik x_v30_okul x_v30_R x_v31_melik x_v31_okul x_v31_R x_v32_melik
 x_v32_okul x_v32_R x_v33_melik x_v33_okul x_v33_R x_v34_melik x_v34_okul
 x_v34_R x_v35_melik x_v35_okul x_v35_R x_v36_melik x_v36_okul x_v36_R
 x_v37_melik x_v37_okul x_v37_R x_v38_melik x_v38_okul x_v38_R x_v39_melik
 x_v39_okul x_v39_R x_v40_melik x_v40_okul x_v40_R x_v41_melik x_v41_okul
 x_v41_R x_v42_melik x_v42_okul x_v42_R x_v43_melik x_v43_okul x_v43_R
 x_v44_melik x_v44_okul x_v44_R x_v45_melik x_v45_okul x_v45_R x_v46_melik
 x_v46_okul x_v46_R x_v47_melik x_v47_okul x_v47_R x_v48_melik x_v48_okul
 x_v48_R x_v49_melik x_v49_okul x_v49_R x_v50_melik x_v50_okul x_v50_R
 x_v51_melik x_v51_okul x_v51_R x_v52_melik x_v52_okul x_v52_R x_v53_melik
 x_v53_okul x_v53_R x_v54_melik x_v54_okul x_v54_R x_v55_melik x_v55_okul
 x_v55_R x_v56_melik x_v56_okul x_v56_R x_v57_melik x_v57_okul x_v57_R
 x_v58_melik x_v58_okul x_v58_R x_v59_melik x_v59_okul x_v59_R x_v60_melik
 x_v60_okul x_v60_R x_v61_melik x_v61_okul x_v61_R x_v62_melik x_v62_okul
 x_v62_R x_v63_melik x_v63_okul x_v63_R x_v64_melik x_v64_okul x_v64_R
 x_v65_melik x_v65_okul x_v65_R x_v66_melik x_v66_okul x_v66_R x_v67_melik
 x_v67_okul x_v67_R x_v68_melik x_v68_okul x_v68_R x_v69_melik x_v69_okul
 x_v69_R x_v70_melik x_v70_okul x_v70_R x_v71_melik x_v71_okul x_v71_R
 x_v72_melik x_v72_okul x_v72_R x_v73_melik x_v73_okul x_v73_R x_v74_melik
 x_v74_okul x_v74_R x_v75_melik x_v75_okul x_v75_R x_v76_melik x_v76_okul
 x_v76_R x_v77_melik x_v77_okul x_v77_R x_v78_melik x_v78_okul x_v78_R
 x_v79_melik x_v79_okul x_v79_R x_v80_melik x_v80_okul x_v80_R x_v81_melik
 x_v81_okul x_v81_R x_v82_melik x_v82_okul x_v82_R x_v83_melik x_v83_okul
 x_v83_R x_v84_melik x_v84_okul x_v84_R x_v85_melik x_v85_okul x_v85_R
 x_v86_melik x_v86_okul x_v86_R x_v87_melik x_v87_okul x_v87_R x_v88_melik
 x_v88_okul x_v88_R x_v89_melik x_v89_okul x_v89_R x_v90_melik x_v90_okul
 x_v90_R x_v91_melik x_v91_okul x_v91_R x_v92_melik x_v92_okul x_v92_R
 x_v93_melik x_v93_okul x_v93_R x_v94_melik x_v94_okul x_v94_R x_v95_melik
 x_v95_okul x_v95_R x_v96_melik x_v96_okul x_v96_R x_v97_melik x_v97_okul
 x_v97_R x_v98_melik x_v98_okul x_v98_R x_v99_melik x_v99_okul x_v99_R
 x_v100_melik x_v100_okul x_v100_R u_melik_0 u_melik_1 u_melik_2 u_melik_3
 u_melik_4 u_melik_5 u_melik_6 u_melik_7 u_melik_8 u_melik_9 u_melik_10
 u_melik_11 u_melik_12 u_melik_13 u_melik_14 u_melik_15 u_melik_16 u_melik_17
 u_melik_18 u_melik_19 u_melik_20 u_melik_21 u_melik_22 u_melik_23 u_melik_24
 u_melik_25 u_melik_26 u_melik_27 u_melik_28 u_melik_29 u_melik_30 u_melik_31
 u_melik_32 u_melik_33 u_melik_34 u_melik_35 u_melik_36 u_melik_37 u_melik_38
 u_melik_39 u_melik_40 u_melik_41 u_melik_42 u_melik_43 u_melik_44 u_melik_45
 u_melik_46 u_melik_47 u_melik_48 u_melik_49 u_melik_50 u_melik_51 u_melik_52
 u_melik_53 u_melik_54 u_melik_55 u_melik_56 u_melik_57 u_melik_58 u_melik_59
 u_melik_60 u_melik_61 u_melik_62 u_melik_63 u_melik_64 u_melik_65 u_melik_66
 u_melik_67 u_melik_68 u_melik_69 u_melik_70 u_melik_71 u_melik_72 u_melik_73
 u_melik_74 u_melik_75 u_melik_76 u_melik_77 u_melik_78 u_melik_79 u_melik_80
 u_okul_0 u_okul_1 u_okul_2 u_okul_3 u_okul_4 u_okul_5 u_okul_6 u_okul_7
 u_okul_8 u_okul_9 u_okul_10 u_okul_11 u_okul_12 u_okul_13 u_okul_14 u_okul_15
 u_okul_16 u_okul_17 u_okul_18 u_okul_19 u_okul_20 u_okul_21 u_okul_22 u_okul_23
 u_okul_24 u_okul_25 u_okul_26 u_okul_27 u_okul_28 u_okul_29 u_okul_30 u_okul_31
 u_okul_32 u_okul_33 u_okul_34 u_okul_35 u_okul_36 u_okul_37 u_okul_38 u_okul_39
 u_okul_40 u_okul_41 u_okul_42 u_okul_43 u_okul_44 u_okul_45 u_okul_46 u_okul_47
 u_okul_48 u_okul_49 u_okul_50 u_okul_51 u_okul_52 u_okul_53 u_okul_54 u_okul_55
 u_okul_56 u_okul_57 u_okul_58 u_okul_59 u_okul_60 u_okul_61 u_okul_62 u_okul_63
 u_okul_64 u_okul_65 u_okul_66 u_okul_67 u_okul_68 u_okul_69 u_okul_70 u_okul_71
 y_v1_melik_38 y_v1_melik_43 y_v1_melik_70 y_v1_okul_5 y_v1_okul_15 y_v1_okul_26
 y_v1_okul_29 y_v1_okul_35 y_v1_okul_36 y_v1_okul_46 y_v1_okul_55 y_v2_melik_0
 y_v2_melik_38 y_v2_melik_43 y_v2_melik_65 y_v2_melik_70 y_v2_okul_5
 y_v2_okul_15 y_v2_okul_18 y_v2_okul_21 y_v2_okul_26 y_v2_okul_29 y_v2_okul_35
 y_v2_okul_36 y_v2_okul_46 y_v2_okul_55 y_v2_okul_56 y_v3_melik_0 y_v3_melik_20
 y_v3_melik_38 y_v3_melik_43 y_v3_melik_57 y_v3_melik_65 y_v3_okul_5
 y_v3_okul_14 y_v3_okul_15 y_v3_okul_18 y_v3_okul_21 y_v3_okul_26 y_v3_okul_29
 y_v3_okul_33 y_v3_okul_35 y_v3_okul_36 y_v3_okul_46 y_v3_okul_55 y_v3_okul_56
 y_v3_okul_67 y_v4_melik_0 y_v4_melik_18 y_v4_melik_20 y_v4_melik_43
 y_v4_melik_48 y_v4_melik_57 y_v4_okul_5 y_v4_okul_14 y_v4_okul_15 y_v4_okul_18
 y_v4_okul_21 y_v4_okul_26 y_v4_okul_29 y_v4_okul_30 y_v4_okul_33 y_v4_okul_35
 y_v4_okul_36 y_v4_okul_46 y_v4_okul_47 y_v4_okul_55 y_v4_okul_56 y_v4_okul_58
 y_v4_okul_67 y_v5_melik_0 y_v5_melik_18 y_v5_melik_20 y_v5_melik_42
 y_v5_melik_48 y_v5_melik_67 y_v5_okul_5 y_v5_okul_9 y_v5_okul_14 y_v5_okul_15
 y_v5_okul_18 y_v5_okul_21 y_v5_okul_22 y_v5_okul_26 y_v5_okul_29 y_v5_okul_30
 y_v5_okul_33 y_v5_okul_35 y_v5_okul_46 y_v5_okul_47 y_v5_okul_55 y_v5_okul_56
 y_v5_okul_58 y_v5_okul_67 y_v5_okul_71 y_v6_melik_19 y_v6_melik_20
 y_v6_melik_30 y_v6_melik_42 y_v6_melik_48 y_v6_melik_67 y_v6_okul_1 y_v6_okul_5
 y_v6_okul_9 y_v6_okul_14 y_v6_okul_18 y_v6_okul_21 y_v6_okul_22 y_v6_okul_29
 y_v6_okul_30 y_v6_okul_33 y_v6_okul_35 y_v6_okul_40 y_v6_okul_47 y_v6_okul_55
 y_v6_okul_56 y_v6_okul_58 y_v6_okul_60 y_v6_okul_67 y_v6_okul_71 y_v7_melik_19
 y_v7_melik_30 y_v7_melik_46 y_v7_melik_48 y_v7_melik_67 y_v7_melik_76
 y_v7_okul_1 y_v7_okul_5 y_v7_okul_9 y_v7_okul_14 y_v7_okul_18 y_v7_okul_21
 y_v7_okul_22 y_v7_okul_30 y_v7_okul_33 y_v7_okul_40 y_v7_okul_47 y_v7_okul_55
 y_v7_okul_58 y_v7_okul_60 y_v7_okul_65 y_v7_okul_67 y_v7_okul_71 y_v8_melik_19
 y_v8_melik_29 y_v8_melik_46 y_v8_melik_67 y_v8_melik_76 y_v8_melik_77
 y_v8_okul_1 y_v8_okul_9 y_v8_okul_14 y_v8_okul_18 y_v8_okul_21 y_v8_okul_22
 y_v8_okul_30 y_v8_okul_33 y_v8_okul_40 y_v8_okul_47 y_v8_okul_58 y_v8_okul_60
 y_v8_okul_65 y_v8_okul_71 y_v9_melik_19 y_v9_melik_29 y_v9_melik_60
 y_v9_melik_76 y_v9_melik_77 y_v9_okul_1 y_v9_okul_9 y_v9_okul_14 y_v9_okul_22
 y_v9_okul_30 y_v9_okul_33 y_v9_okul_40 y_v9_okul_47 y_v9_okul_60 y_v9_okul_65
 y_v9_okul_71 y_v10_melik_60 y_v10_melik_76 y_v10_melik_77 y_v10_okul_1
 y_v10_okul_9 y_v10_okul_22 y_v10_okul_30 y_v10_okul_40 y_v10_okul_47
 y_v10_okul_60 y_v10_okul_65 y_v11_melik_38 y_v11_melik_43 y_v11_melik_61
 y_v11_melik_65 y_v11_melik_70 y_v11_okul_5 y_v11_okul_15 y_v11_okul_16
 y_v11_okul_26 y_v11_okul_29 y_v11_okul_35 y_v11_okul_36 y_v11_okul_46
 y_v11_okul_55 y_v11_okul_56 y_v11_okul_57 y_v12_melik_0 y_v12_melik_38
 y_v12_melik_43 y_v12_melik_55 y_v12_melik_57 y_v12_melik_61 y_v12_melik_65
 y_v12_melik_70 y_v12_okul_5 y_v12_okul_15 y_v12_okul_16 y_v12_okul_18
 y_v12_okul_21 y_v12_okul_26 y_v12_okul_29 y_v12_okul_35 y_v12_okul_36
 y_v12_okul_46 y_v12_okul_55 y_v12_okul_56 y_v12_okul_57 y_v12_okul_67
 y_v12_okul_69 y_v13_melik_0 y_v13_melik_18 y_v13_melik_20 y_v13_melik_38
 y_v13_melik_43 y_v13_melik_55 y_v13_melik_57 y_v13_melik_65 y_v13_melik_70
 y_v13_melik_72 y_v13_okul_2 y_v13_okul_5 y_v13_okul_14 y_v13_okul_15
 y_v13_okul_16 y_v13_okul_18 y_v13_okul_21 y_v13_okul_26 y_v13_okul_29
 y_v13_okul_33 y_v13_okul_35 y_v13_okul_36 y_v13_okul_46 y_v13_okul_55
 y_v13_okul_56 y_v13_okul_57 y_v13_okul_58 y_v13_okul_67 y_v13_okul_69
 y_v14_melik_0 y_v14_melik_18 y_v14_melik_20 y_v14_melik_42 y_v14_melik_43
 y_v14_melik_48 y_v14_melik_53 y_v14_melik_57 y_v14_melik_65 y_v14_melik_72
 y_v14_okul_2 y_v14_okul_5 y_v14_okul_14 y_v14_okul_15 y_v14_okul_16
 y_v14_okul_18 y_v14_okul_21 y_v14_okul_26 y_v14_okul_29 y_v14_okul_30
 y_v14_okul_33 y_v14_okul_35 y_v14_okul_36 y_v14_okul_46 y_v14_okul_47
 y_v14_okul_53 y_v14_okul_55 y_v14_okul_56 y_v14_okul_57 y_v14_okul_58
 y_v14_okul_67 y_v14_okul_69 y_v14_okul_71 y_v15_melik_0 y_v15_melik_18
 y_v15_melik_20 y_v15_melik_30 y_v15_melik_42 y_v15_melik_48 y_v15_melik_53
 y_v15_melik_57 y_v15_melik_67 y_v15_melik_74 y_v15_okul_2 y_v15_okul_5
 y_v15_okul_9 y_v15_okul_14 y_v15_okul_15 y_v15_okul_18 y_v15_okul_21
 y_v15_okul_22 y_v15_okul_26 y_v15_okul_29 y_v15_okul_30 y_v15_okul_33
 y_v15_okul_34 y_v15_okul_35 y_v15_okul_36 y_v15_okul_40 y_v15_okul_46
 y_v15_okul_47 y_v15_okul_53 y_v15_okul_55 y_v15_okul_56 y_v15_okul_57
 y_v15_okul_58 y_v15_okul_67 y_v15_okul_69 y_v15_okul_71 y_v16_melik_18
 y_v16_melik_19 y_v16_melik_20 y_v16_melik_30 y_v16_melik_42 y_v16_melik_45
 y_v16_melik_46 y_v16_melik_48 y_v16_melik_67 y_v16_melik_74 y_v16_okul_1
 y_v16_okul_2 y_v16_okul_5 y_v16_okul_9 y_v16_okul_14 y_v16_okul_18
 y_v16_okul_19 y_v16_okul_21 y_v16_okul_22 y_v16_okul_29 y_v16_okul_30
 y_v16_okul_33 y_v16_okul_34 y_v16_okul_35 y_v16_okul_40 y_v16_okul_46
 y_v16_okul_47 y_v16_okul_53 y_v16_okul_55 y_v16_okul_56 y_v16_okul_58
 y_v16_okul_60 y_v16_okul_65 y_v16_okul_67 y_v16_okul_69 y_v16_okul_71
 y_v17_melik_19 y_v17_melik_29 y_v17_melik_30 y_v17_melik_42 y_v17_melik_45
 y_v17_melik_46 y_v17_melik_48 y_v17_melik_66 y_v17_melik_67 y_v17_melik_76
 y_v17_okul_1 y_v17_okul_2 y_v17_okul_5 y_v17_okul_9 y_v17_okul_14 y_v17_okul_18
 y_v17_okul_19 y_v17_okul_21 y_v17_okul_22 y_v17_okul_30 y_v17_okul_33
 y_v17_okul_34 y_v17_okul_40 y_v17_okul_47 y_v17_okul_53 y_v17_okul_55
 y_v17_okul_56 y_v17_okul_58 y_v17_okul_60 y_v17_okul_65 y_v17_okul_66
 y_v17_okul_67 y_v17_okul_71 y_v18_melik_19 y_v18_melik_29 y_v18_melik_30
 y_v18_melik_40 y_v18_melik_46 y_v18_melik_60 y_v18_melik_66 y_v18_melik_67
 y_v18_melik_76 y_v18_melik_77 y_v18_okul_1 y_v18_okul_9 y_v18_okul_14
 y_v18_okul_18 y_v18_okul_19 y_v18_okul_21 y_v18_okul_22 y_v18_okul_30
 y_v18_okul_33 y_v18_okul_34 y_v18_okul_40 y_v18_okul_47 y_v18_okul_53
 y_v18_okul_58 y_v18_okul_60 y_v18_okul_65 y_v18_okul_66 y_v18_okul_67
 y_v18_okul_71 y_v19_melik_19 y_v19_melik_29 y_v19_melik_31 y_v19_melik_40
 y_v19_melik_46 y_v19_melik_60 y_v19_melik_76 y_v19_melik_77 y_v19_okul_1
 y_v19_okul_9 y_v19_okul_14 y_v19_okul_19 y_v19_okul_22 y_v19_okul_30
 y_v19_okul_33 y_v19_okul_34 y_v19_okul_40 y_v19_okul_47 y_v19_okul_58
 y_v19_okul_60 y_v19_okul_65 y_v19_okul_66 y_v19_okul_71 y_v20_melik_29
 y_v20_melik_31 y_v20_melik_60 y_v20_melik_76 y_v20_melik_77 y_v20_okul_1
 y_v20_okul_9 y_v20_okul_19 y_v20_okul_22 y_v20_okul_30 y_v20_okul_40
 y_v20_okul_47 y_v20_okul_60 y_v20_okul_65 y_v20_okul_66 y_v20_okul_71
 y_v21_melik_22 y_v21_melik_38 y_v21_melik_55 y_v21_melik_61 y_v21_melik_65
 y_v21_melik_70 y_v21_okul_5 y_v21_okul_15 y_v21_okul_16 y_v21_okul_26
 y_v21_okul_29 y_v21_okul_35 y_v21_okul_36 y_v21_okul_46 y_v21_okul_51
 y_v21_okul_55 y_v21_okul_56 y_v21_okul_57 y_v21_okul_62 y_v21_okul_69
 y_v22_melik_22 y_v22_melik_27 y_v22_melik_38 y_v22_melik_43 y_v22_melik_55
 y_v22_melik_57 y_v22_melik_61 y_v22_melik_65 y_v22_melik_70 y_v22_melik_72
 y_v22_okul_0 y_v22_okul_2 y_v22_okul_5 y_v22_okul_15 y_v22_okul_16
 y_v22_okul_18 y_v22_okul_21 y_v22_okul_26 y_v22_okul_29 y_v22_okul_35
 y_v22_okul_36 y_v22_okul_46 y_v22_okul_51 y_v22_okul_55 y_v22_okul_56
 y_v22_okul_57 y_v22_okul_62 y_v22_okul_67 y_v22_okul_69 y_v23_melik_0
 y_v23_melik_18 y_v23_melik_27 y_v23_melik_43 y_v23_melik_53 y_v23_melik_55
 y_v23_melik_56 y_v23_melik_57 y_v23_melik_61 y_v23_melik_65 y_v23_melik_70
 y_v23_melik_72 y_v23_okul_0 y_v23_okul_2 y_v23_okul_5 y_v23_okul_14
 y_v23_okul_15 y_v23_okul_16 y_v23_okul_18 y_v23_okul_21 y_v23_okul_26
 y_v23_okul_29 y_v23_okul_33 y_v23_okul_35 y_v23_okul_36 y_v23_okul_46
 y_v23_okul_51 y_v23_okul_52 y_v23_okul_53 y_v23_okul_55 y_v23_okul_56
 y_v23_okul_57 y_v23_okul_58 y_v23_okul_62 y_v23_okul_67 y_v23_okul_69
 y_v24_melik_0 y_v24_melik_18 y_v24_melik_20 y_v24_melik_42 y_v24_melik_51
 y_v24_melik_53 y_v24_melik_55 y_v24_melik_56 y_v24_melik_57 y_v24_melik_65
 y_v24_melik_72 y_v24_melik_74 y_v24_okul_0 y_v24_okul_2 y_v24_okul_5
 y_v24_okul_14 y_v24_okul_15 y_v24_okul_16 y_v24_okul_18 y_v24_okul_21
 y_v24_okul_26 y_v24_okul_29 y_v24_okul_30 y_v24_okul_33 y_v24_okul_34
 y_v24_okul_35 y_v24_okul_36 y_v24_okul_41 y_v24_okul_46 y_v24_okul_47
 y_v24_okul_51 y_v24_okul_52 y_v24_okul_53 y_v24_okul_55 y_v24_okul_56
 y_v24_okul_57 y_v24_okul_58 y_v24_okul_62 y_v24_okul_67 y_v24_okul_69
 y_v24_okul_71 y_v25_melik_18 y_v25_melik_20 y_v25_melik_30 y_v25_melik_42
 y_v25_melik_45 y_v25_melik_48 y_v25_melik_51 y_v25_melik_53 y_v25_melik_57
 y_v25_melik_59 y_v25_melik_72 y_v25_melik_74 y_v25_okul_0 y_v25_okul_2
 y_v25_okul_5 y_v25_okul_9 y_v25_okul_14 y_v25_okul_15 y_v25_okul_16
 y_v25_okul_18 y_v25_okul_19 y_v25_okul_21 y_v25_okul_22 y_v25_okul_26
 y_v25_okul_29 y_v25_okul_30 y_v25_okul_33 y_v25_okul_34 y_v25_okul_35
 y_v25_okul_36 y_v25_okul_40 y_v25_okul_41 y_v25_okul_46 y_v25_okul_47
 y_v25_okul_51 y_v25_okul_52 y_v25_okul_53 y_v25_okul_55 y_v25_okul_56
 y_v25_okul_57 y_v25_okul_58 y_v25_okul_67 y_v25_okul_68 y_v25_okul_69
 y_v25_okul_71 y_v26_melik_18 y_v26_melik_24 y_v26_melik_30 y_v26_melik_42
 y_v26_melik_45 y_v26_melik_46 y_v26_melik_48 y_v26_melik_53 y_v26_melik_59
 y_v26_melik_66 y_v26_melik_67 y_v26_melik_74 y_v26_okul_0 y_v26_okul_1
 y_v26_okul_2 y_v26_okul_5 y_v26_okul_6 y_v26_okul_9 y_v26_okul_14 y_v26_okul_18
 y_v26_okul_19 y_v26_okul_21 y_v26_okul_22 y_v26_okul_29 y_v26_okul_30
 y_v26_okul_33 y_v26_okul_34 y_v26_okul_35 y_v26_okul_40 y_v26_okul_41
 y_v26_okul_46 y_v26_okul_47 y_v26_okul_52 y_v26_okul_53 y_v26_okul_55
 y_v26_okul_56 y_v26_okul_57 y_v26_okul_58 y_v26_okul_60 y_v26_okul_65
 y_v26_okul_66 y_v26_okul_67 y_v26_okul_68 y_v26_okul_69 y_v26_okul_71
 y_v27_melik_19 y_v27_melik_24 y_v27_melik_29 y_v27_melik_30 y_v27_melik_34
 y_v27_melik_40 y_v27_melik_42 y_v27_melik_45 y_v27_melik_46 y_v27_melik_66
 y_v27_melik_67 y_v27_melik_74 y_v27_okul_1 y_v27_okul_2 y_v27_okul_3
 y_v27_okul_5 y_v27_okul_6 y_v27_okul_9 y_v27_okul_14 y_v27_okul_18
 y_v27_okul_19 y_v27_okul_21 y_v27_okul_22 y_v27_okul_30 y_v27_okul_33
 y_v27_okul_34 y_v27_okul_40 y_v27_okul_41 y_v27_okul_47 y_v27_okul_52
 y_v27_okul_53 y_v27_okul_55 y_v27_okul_56 y_v27_okul_58 y_v27_okul_60
 y_v27_okul_65 y_v27_okul_66 y_v27_okul_67 y_v27_okul_68 y_v27_okul_69
 y_v27_okul_71 y_v28_melik_19 y_v28_melik_26 y_v28_melik_29 y_v28_melik_30
 y_v28_melik_31 y_v28_melik_34 y_v28_melik_40 y_v28_melik_45 y_v28_melik_46
 y_v28_melik_60 y_v28_melik_66 y_v28_melik_76 y_v28_okul_1 y_v28_okul_2
 y_v28_okul_3 y_v28_okul_6 y_v28_okul_9 y_v28_okul_14 y_v28_okul_18
 y_v28_okul_19 y_v28_okul_21 y_v28_okul_22 y_v28_okul_30 y_v28_okul_33
 y_v28_okul_34 y_v28_okul_40 y_v28_okul_41 y_v28_okul_47 y_v28_okul_53
 y_v28_okul_58 y_v28_okul_60 y_v28_okul_65 y_v28_okul_66 y_v28_okul_67
 y_v28_okul_68 y_v28_okul_71 y_v29_melik_26 y_v29_melik_29 y_v29_melik_31
 y_v29_melik_40 y_v29_melik_46 y_v29_melik_50 y_v29_melik_60 y_v29_melik_66
 y_v29_melik_76 y_v29_melik_77 y_v29_okul_1 y_v29_okul_3 y_v29_okul_6
 y_v29_okul_9 y_v29_okul_14 y_v29_okul_19 y_v29_okul_22 y_v29_okul_30
 y_v29_okul_33 y_v29_okul_34 y_v29_okul_40 y_v29_okul_47 y_v29_okul_53
 y_v29_okul_58 y_v29_okul_60 y_v29_okul_65 y_v29_okul_66 y_v29_okul_68
 y_v29_okul_71 y_v30_melik_29 y_v30_melik_31 y_v30_melik_40 y_v30_melik_50
 y_v30_melik_60 y_v30_melik_77 y_v30_okul_1 y_v30_okul_3 y_v30_okul_6
 y_v30_okul_9 y_v30_okul_19 y_v30_okul_22 y_v30_okul_30 y_v30_okul_34
 y_v30_okul_40 y_v30_okul_47 y_v30_okul_60 y_v30_okul_65 y_v30_okul_66
 y_v30_okul_71 y_v31_melik_22 y_v31_melik_27 y_v31_melik_55 y_v31_melik_61
 y_v31_melik_70 y_v31_melik_79 y_v31_okul_0 y_v31_okul_5 y_v31_okul_7
 y_v31_okul_15 y_v31_okul_16 y_v31_okul_26 y_v31_okul_28 y_v31_okul_29
 y_v31_okul_35 y_v31_okul_36 y_v31_okul_46 y_v31_okul_51 y_v31_okul_56
 y_v31_okul_57 y_v31_okul_62 y_v31_okul_69 y_v32_melik_22 y_v32_melik_27
 y_v32_melik_44 y_v32_melik_55 y_v32_melik_56 y_v32_melik_61 y_v32_melik_65
 y_v32_melik_70 y_v32_melik_72 y_v32_melik_79 y_v32_okul_0 y_v32_okul_2
 y_v32_okul_5 y_v32_okul_7 y_v32_okul_15 y_v32_okul_16 y_v32_okul_21
 y_v32_okul_26 y_v32_okul_28 y_v32_okul_29 y_v32_okul_35 y_v32_okul_36
 y_v32_okul_37 y_v32_okul_46 y_v32_okul_51 y_v32_okul_52 y_v32_okul_55
 y_v32_okul_56 y_v32_okul_57 y_v32_okul_62 y_v32_okul_67 y_v32_okul_69
 y_v33_melik_12 y_v33_melik_22 y_v33_melik_27 y_v33_melik_44 y_v33_melik_51
 y_v33_melik_53 y_v33_melik_55 y_v33_melik_56 y_v33_melik_57 y_v33_melik_61
 y_v33_melik_65 y_v33_melik_72 y_v33_okul_0 y_v33_okul_2 y_v33_okul_5
 y_v33_okul_7 y_v33_okul_15 y_v33_okul_16 y_v33_okul_18 y_v33_okul_21
 y_v33_okul_26 y_v33_okul_28 y_v33_okul_29 y_v33_okul_33 y_v33_okul_35
 y_v33_okul_36 y_v33_okul_37 y_v33_okul_39 y_v33_okul_41 y_v33_okul_46
 y_v33_okul_51 y_v33_okul_52 y_v33_okul_53 y_v33_okul_55 y_v33_okul_56
 y_v33_okul_57 y_v33_okul_58 y_v33_okul_62 y_v33_okul_67 y_v33_okul_69
 y_v34_melik_12 y_v34_melik_18 y_v34_melik_27 y_v34_melik_51 y_v34_melik_53
 y_v34_melik_55 y_v34_melik_56 y_v34_melik_57 y_v34_melik_59 y_v34_melik_72
 y_v34_melik_74 y_v34_melik_80 y_v34_okul_0 y_v34_okul_2 y_v34_okul_5
 y_v34_okul_7 y_v34_okul_14 y_v34_okul_15 y_v34_okul_16 y_v34_okul_18
 y_v34_okul_21 y_v34_okul_25 y_v34_okul_26 y_v34_okul_28 y_v34_okul_29
 y_v34_okul_30 y_v34_okul_33 y_v34_okul_34 y_v34_okul_35 y_v34_okul_36
 y_v34_okul_37 y_v34_okul_39 y_v34_okul_41 y_v34_okul_46 y_v34_okul_51
 y_v34_okul_52 y_v34_okul_53 y_v34_okul_55 y_v34_okul_56 y_v34_okul_57
 y_v34_okul_58 y_v34_okul_62 y_v34_okul_67 y_v34_okul_68 y_v34_okul_69
 y_v34_okul_71 y_v35_melik_18 y_v35_melik_24 y_v35_melik_42 y_v35_melik_45
 y_v35_melik_51 y_v35_melik_53 y_v35_melik_56 y_v35_melik_59 y_v35_melik_69
 y_v35_melik_72 y_v35_melik_74 y_v35_melik_80 y_v35_okul_0 y_v35_okul_2
 y_v35_okul_5 y_v35_okul_6 y_v35_okul_7 y_v35_okul_14 y_v35_okul_16
 y_v35_okul_18 y_v35_okul_19 y_v35_okul_21 y_v35_okul_22 y_v35_okul_25
 y_v35_okul_26 y_v35_okul_29 y_v35_okul_30 y_v35_okul_33 y_v35_okul_34
 y_v35_okul_35 y_v35_okul_36 y_v35_okul_37 y_v35_okul_39 y_v35_okul_40
 y_v35_okul_41 y_v35_okul_46 y_v35_okul_47 y_v35_okul_49 y_v35_okul_51
 y_v35_okul_52 y_v35_okul_53 y_v35_okul_55 y_v35_okul_56 y_v35_okul_57
 y_v35_okul_58 y_v35_okul_62 y_v35_okul_67 y_v35_okul_68 y_v35_okul_69
 y_v35_okul_71 y_v36_melik_24 y_v36_melik_30 y_v36_melik_34 y_v36_melik_37
 y_v36_melik_42 y_v36_melik_45 y_v36_melik_51 y_v36_melik_53 y_v36_melik_59
 y_v36_melik_66 y_v36_melik_69 y_v36_melik_74 y_v36_okul_0 y_v36_okul_1
 y_v36_okul_2 y_v36_okul_3 y_v36_okul_5 y_v36_okul_6 y_v36_okul_9 y_v36_okul_14
 y_v36_okul_18 y_v36_okul_19 y_v36_okul_21 y_v36_okul_22 y_v36_okul_25
 y_v36_okul_30 y_v36_okul_33 y_v36_okul_34 y_v36_okul_35 y_v36_okul_37
 y_v36_okul_39 y_v36_okul_40 y_v36_okul_41 y_v36_okul_46 y_v36_okul_47
 y_v36_okul_49 y_v36_okul_51 y_v36_okul_52 y_v36_okul_53 y_v36_okul_55
 y_v36_okul_56 y_v36_okul_57 y_v36_okul_58 y_v36_okul_59 y_v36_okul_65
 y_v36_okul_66 y_v36_okul_67 y_v36_okul_68 y_v36_okul_69 y_v36_okul_71
 y_v37_melik_7 y_v37_melik_24 y_v37_melik_26 y_v37_melik_30 y_v37_melik_34
 y_v37_melik_37 y_v37_melik_40 y_v37_melik_45 y_v37_melik_46 y_v37_melik_59
 y_v37_melik_66 y_v37_melik_74 y_v37_okul_0 y_v37_okul_1 y_v37_okul_2
 y_v37_okul_3 y_v37_okul_5 y_v37_okul_6 y_v37_okul_9 y_v37_okul_11 y_v37_okul_14
 y_v37_okul_18 y_v37_okul_19 y_v37_okul_21 y_v37_okul_22 y_v37_okul_25
 y_v37_okul_30 y_v37_okul_33 y_v37_okul_34 y_v37_okul_39 y_v37_okul_40
 y_v37_okul_41 y_v37_okul_47 y_v37_okul_49 y_v37_okul_52 y_v37_okul_53
 y_v37_okul_56 y_v37_okul_58 y_v37_okul_59 y_v37_okul_60 y_v37_okul_65
 y_v37_okul_66 y_v37_okul_67 y_v37_okul_68 y_v37_okul_69 y_v37_okul_71
 y_v38_melik_7 y_v38_melik_24 y_v38_melik_26 y_v38_melik_29 y_v38_melik_31
 y_v38_melik_34 y_v38_melik_40 y_v38_melik_45 y_v38_melik_46 y_v38_melik_47
 y_v38_melik_50 y_v38_melik_66 y_v38_okul_1 y_v38_okul_2 y_v38_okul_3
 y_v38_okul_6 y_v38_okul_9 y_v38_okul_11 y_v38_okul_14 y_v38_okul_19
 y_v38_okul_21 y_v38_okul_22 y_v38_okul_25 y_v38_okul_30 y_v38_okul_33
 y_v38_okul_34 y_v38_okul_40 y_v38_okul_41 y_v38_okul_47 y_v38_okul_49
 y_v38_okul_52 y_v38_okul_53 y_v38_okul_58 y_v38_okul_59 y_v38_okul_60
 y_v38_okul_65 y_v38_okul_66 y_v38_okul_67 y_v38_okul_68 y_v38_okul_71
 y_v39_melik_26 y_v39_melik_29 y_v39_melik_31 y_v39_melik_34 y_v39_melik_40
 y_v39_melik_47 y_v39_melik_50 y_v39_melik_60 y_v39_melik_66 y_v39_melik_68
 y_v39_okul_1 y_v39_okul_3 y_v39_okul_6 y_v39_okul_9 y_v39_okul_11 y_v39_okul_19
 y_v39_okul_22 y_v39_okul_30 y_v39_okul_33 y_v39_okul_34 y_v39_okul_40
 y_v39_okul_41 y_v39_okul_47 y_v39_okul_49 y_v39_okul_53 y_v39_okul_58
 y_v39_okul_59 y_v39_okul_60 y_v39_okul_65 y_v39_okul_66 y_v39_okul_68
 y_v39_okul_71 y_v40_melik_26 y_v40_melik_31 y_v40_melik_40 y_v40_melik_50
 y_v40_melik_60 y_v40_melik_68 y_v40_okul_1 y_v40_okul_3 y_v40_okul_6
 y_v40_okul_9 y_v40_okul_11 y_v40_okul_19 y_v40_okul_22 y_v40_okul_30
 y_v40_okul_34 y_v40_okul_40 y_v40_okul_59 y_v40_okul_60 y_v40_okul_65
 y_v40_okul_66 y_v40_okul_68 y_v40_okul_71 y_v41_melik_22 y_v41_melik_27
 y_v41_melik_44 y_v41_melik_54 y_v41_melik_61 y_v41_melik_79 y_v41_okul_0
 y_v41_okul_7 y_v41_okul_16 y_v41_okul_26 y_v41_okul_28 y_v41_okul_31
 y_v41_okul_35 y_v41_okul_36 y_v41_okul_37 y_v41_okul_46 y_v41_okul_51
 y_v41_okul_56 y_v41_okul_57 y_v41_okul_62 y_v41_okul_63 y_v41_okul_69
 y_v42_melik_12 y_v42_melik_22 y_v42_melik_27 y_v42_melik_44 y_v42_melik_54
 y_v42_melik_55 y_v42_melik_56 y_v42_melik_61 y_v42_melik_71 y_v42_melik_79
 y_v42_okul_0 y_v42_okul_2 y_v42_okul_5 y_v42_okul_7 y_v42_okul_16 y_v42_okul_26
 y_v42_okul_28 y_v42_okul_31 y_v42_okul_35 y_v42_okul_36 y_v42_okul_37
 y_v42_okul_39 y_v42_okul_42 y_v42_okul_46 y_v42_okul_51 y_v42_okul_52
 y_v42_okul_56 y_v42_okul_57 y_v42_okul_62 y_v42_okul_63 y_v42_okul_67
 y_v42_okul_69 y_v43_melik_12 y_v43_melik_22 y_v43_melik_27 y_v43_melik_41
 y_v43_melik_44 y_v43_melik_51 y_v43_melik_55 y_v43_melik_56 y_v43_melik_71
 y_v43_melik_72 y_v43_melik_79 y_v43_melik_80 y_v43_okul_0 y_v43_okul_2
 y_v43_okul_5 y_v43_okul_7 y_v43_okul_10 y_v43_okul_16 y_v43_okul_21
 y_v43_okul_25 y_v43_okul_26 y_v43_okul_28 y_v43_okul_31 y_v43_okul_35
 y_v43_okul_36 y_v43_okul_37 y_v43_okul_39 y_v43_okul_41 y_v43_okul_42
 y_v43_okul_46 y_v43_okul_51 y_v43_okul_52 y_v43_okul_53 y_v43_okul_56
 y_v43_okul_57 y_v43_okul_58 y_v43_okul_62 y_v43_okul_63 y_v43_okul_67
 y_v43_okul_69 y_v44_melik_12 y_v44_melik_27 y_v44_melik_28 y_v44_melik_41
 y_v44_melik_44 y_v44_melik_51 y_v44_melik_53 y_v44_melik_56 y_v44_melik_59
 y_v44_melik_69 y_v44_melik_72 y_v44_melik_80 y_v44_okul_0 y_v44_okul_2
 y_v44_okul_5 y_v44_okul_7 y_v44_okul_10 y_v44_okul_12 y_v44_okul_16
 y_v44_okul_21 y_v44_okul_25 y_v44_okul_26 y_v44_okul_28 y_v44_okul_31
 y_v44_okul_33 y_v44_okul_34 y_v44_okul_35 y_v44_okul_36 y_v44_okul_37
 y_v44_okul_39 y_v44_okul_41 y_v44_okul_42 y_v44_okul_46 y_v44_okul_49
 y_v44_okul_51 y_v44_okul_52 y_v44_okul_53 y_v44_okul_56 y_v44_okul_57
 y_v44_okul_58 y_v44_okul_62 y_v44_okul_63 y_v44_okul_67 y_v44_okul_68
 y_v44_okul_69 y_v44_okul_71 y_v45_melik_12 y_v45_melik_24 y_v45_melik_28
 y_v45_melik_37 y_v45_melik_51 y_v45_melik_53 y_v45_melik_56 y_v45_melik_59
 y_v45_melik_69 y_v45_melik_74 y_v45_melik_78 y_v45_melik_80 y_v45_okul_0
 y_v45_okul_2 y_v45_okul_5 y_v45_okul_6 y_v45_okul_7 y_v45_okul_10 y_v45_okul_12
 y_v45_okul_16 y_v45_okul_19 y_v45_okul_21 y_v45_okul_25 y_v45_okul_28
 y_v45_okul_30 y_v45_okul_31 y_v45_okul_32 y_v45_okul_33 y_v45_okul_34
 y_v45_okul_35 y_v45_okul_36 y_v45_okul_37 y_v45_okul_39 y_v45_okul_40
 y_v45_okul_41 y_v45_okul_42 y_v45_okul_46 y_v45_okul_49 y_v45_okul_51
 y_v45_okul_52 y_v45_okul_53 y_v45_okul_56 y_v45_okul_57 y_v45_okul_58
 y_v45_okul_59 y_v45_okul_62 y_v45_okul_67 y_v45_okul_68 y_v45_okul_69
 y_v45_okul_71 y_v46_melik_7 y_v46_melik_10 y_v46_melik_24 y_v46_melik_34
 y_v46_melik_37 y_v46_melik_45 y_v46_melik_51 y_v46_melik_59 y_v46_melik_69
 y_v46_melik_74 y_v46_melik_78 y_v46_melik_80 y_v46_okul_0 y_v46_okul_2
 y_v46_okul_3 y_v46_okul_5 y_v46_okul_6 y_v46_okul_7 y_v46_okul_10 y_v46_okul_11
 y_v46_okul_12 y_v46_okul_19 y_v46_okul_21 y_v46_okul_22 y_v46_okul_25
 y_v46_okul_30 y_v46_okul_32 y_v46_okul_33 y_v46_okul_34 y_v46_okul_37
 y_v46_okul_39 y_v46_okul_40 y_v46_okul_41 y_v46_okul_42 y_v46_okul_46
 y_v46_okul_49 y_v46_okul_51 y_v46_okul_52 y_v46_okul_53 y_v46_okul_56
 y_v46_okul_57 y_v46_okul_58 y_v46_okul_59 y_v46_okul_65 y_v46_okul_66
 y_v46_okul_67 y_v46_okul_68 y_v46_okul_69 y_v46_okul_70 y_v46_okul_71
 y_v47_melik_7 y_v47_melik_10 y_v47_melik_24 y_v47_melik_26 y_v47_melik_34
 y_v47_melik_37 y_v47_melik_45 y_v47_melik_47 y_v47_melik_59 y_v47_melik_63
 y_v47_melik_66 y_v47_melik_69 y_v47_okul_0 y_v47_okul_1 y_v47_okul_2
 y_v47_okul_3 y_v47_okul_6 y_v47_okul_10 y_v47_okul_11 y_v47_okul_12
 y_v47_okul_19 y_v47_okul_21 y_v47_okul_22 y_v47_okul_25 y_v47_okul_30
 y_v47_okul_32 y_v47_okul_33 y_v47_okul_34 y_v47_okul_37 y_v47_okul_39
 y_v47_okul_40 y_v47_okul_41 y_v47_okul_49 y_v47_okul_52 y_v47_okul_53
 y_v47_okul_56 y_v47_okul_58 y_v47_okul_59 y_v47_okul_61 y_v47_okul_65
 y_v47_okul_66 y_v47_okul_67 y_v47_okul_68 y_v47_okul_69 y_v47_okul_70
 y_v47_okul_71 y_v48_melik_7 y_v48_melik_24 y_v48_melik_26 y_v48_melik_34
 y_v48_melik_37 y_v48_melik_40 y_v48_melik_47 y_v48_melik_49 y_v48_melik_50
 y_v48_melik_63 y_v48_melik_66 y_v48_melik_68 y_v48_okul_1 y_v48_okul_2
 y_v48_okul_3 y_v48_okul_6 y_v48_okul_11 y_v48_okul_12 y_v48_okul_19
 y_v48_okul_22 y_v48_okul_25 y_v48_okul_30 y_v48_okul_32 y_v48_okul_33
 y_v48_okul_34 y_v48_okul_39 y_v48_okul_40 y_v48_okul_41 y_v48_okul_49
 y_v48_okul_52 y_v48_okul_53 y_v48_okul_58 y_v48_okul_59 y_v48_okul_61
 y_v48_okul_65 y_v48_okul_66 y_v48_okul_67 y_v48_okul_68 y_v48_okul_70
 y_v48_okul_71 y_v49_melik_7 y_v49_melik_26 y_v49_melik_31 y_v49_melik_34
 y_v49_melik_40 y_v49_melik_47 y_v49_melik_49 y_v49_melik_50 y_v49_melik_64
 y_v49_melik_68 y_v49_okul_1 y_v49_okul_3 y_v49_okul_6 y_v49_okul_11
 y_v49_okul_19 y_v49_okul_22 y_v49_okul_25 y_v49_okul_30 y_v49_okul_32
 y_v49_okul_34 y_v49_okul_40 y_v49_okul_41 y_v49_okul_49 y_v49_okul_53
 y_v49_okul_58 y_v49_okul_59 y_v49_okul_61 y_v49_okul_65 y_v49_okul_66
 y_v49_okul_68 y_v49_okul_70 y_v49_okul_71 y_v50_melik_26 y_v50_melik_31
 y_v50_melik_47 y_v50_melik_50 y_v50_melik_64 y_v50_melik_68 y_v50_okul_1
 y_v50_okul_3 y_v50_okul_6 y_v50_okul_11 y_v50_okul_19 y_v50_okul_22
 y_v50_okul_34 y_v50_okul_40 y_v50_okul_49 y_v50_okul_59 y_v50_okul_61
 y_v50_okul_65 y_v50_okul_66 y_v50_okul_68 y_v50_okul_70 y_v50_okul_71
 y_v51_melik_22 y_v51_melik_36 y_v51_melik_44 y_v51_melik_54 y_v51_melik_71
 y_v51_melik_79 y_v51_okul_0 y_v51_okul_7 y_v51_okul_16 y_v51_okul_20
 y_v51_okul_28 y_v51_okul_31 y_v51_okul_36 y_v51_okul_37 y_v51_okul_38
 y_v51_okul_42 y_v51_okul_46 y_v51_okul_51 y_v51_okul_57 y_v51_okul_62
 y_v51_okul_63 y_v51_okul_69 y_v52_melik_12 y_v52_melik_22 y_v52_melik_27
 y_v52_melik_36 y_v52_melik_41 y_v52_melik_44 y_v52_melik_54 y_v52_melik_71
 y_v52_melik_73 y_v52_melik_79 y_v52_okul_0 y_v52_okul_2 y_v52_okul_7
 y_v52_okul_10 y_v52_okul_13 y_v52_okul_16 y_v52_okul_20 y_v52_okul_28
 y_v52_okul_31 y_v52_okul_36 y_v52_okul_37 y_v52_okul_38 y_v52_okul_39
 y_v52_okul_42 y_v52_okul_46 y_v52_okul_51 y_v52_okul_52 y_v52_okul_56
 y_v52_okul_57 y_v52_okul_62 y_v52_okul_63 y_v52_okul_69 y_v53_melik_1
 y_v53_melik_12 y_v53_melik_27 y_v53_melik_28 y_v53_melik_41 y_v53_melik_44
 y_v53_melik_54 y_v53_melik_56 y_v53_melik_71 y_v53_melik_73 y_v53_melik_79
 y_v53_melik_80 y_v53_okul_0 y_v53_okul_2 y_v53_okul_7 y_v53_okul_10
 y_v53_okul_12 y_v53_okul_13 y_v53_okul_16 y_v53_okul_20 y_v53_okul_24
 y_v53_okul_25 y_v53_okul_28 y_v53_okul_31 y_v53_okul_36 y_v53_okul_37
 y_v53_okul_38 y_v53_okul_39 y_v53_okul_41 y_v53_okul_42 y_v53_okul_46
 y_v53_okul_51 y_v53_okul_52 y_v53_okul_53 y_v53_okul_56 y_v53_okul_57
 y_v53_okul_62 y_v53_okul_63 y_v53_okul_67 y_v53_okul_69 y_v54_melik_1
 y_v54_melik_12 y_v54_melik_28 y_v54_melik_41 y_v54_melik_44 y_v54_melik_51
 y_v54_melik_52 y_v54_melik_56 y_v54_melik_69 y_v54_melik_71 y_v54_melik_78
 y_v54_melik_80 y_v54_okul_0 y_v54_okul_2 y_v54_okul_7 y_v54_okul_10
 y_v54_okul_12 y_v54_okul_13 y_v54_okul_16 y_v54_okul_20 y_v54_okul_24
 y_v54_okul_25 y_v54_okul_28 y_v54_okul_31 y_v54_okul_32 y_v54_okul_34
 y_v54_okul_36 y_v54_okul_37 y_v54_okul_38 y_v54_okul_39 y_v54_okul_41
 y_v54_okul_42 y_v54_okul_46 y_v54_okul_49 y_v54_okul_51 y_v54_okul_52
 y_v54_okul_53 y_v54_okul_54 y_v54_okul_56 y_v54_okul_57 y_v54_okul_58
 y_v54_okul_62 y_v54_okul_63 y_v54_okul_67 y_v54_okul_68 y_v54_okul_69
 y_v55_melik_10 y_v55_melik_12 y_v55_melik_21 y_v55_melik_28 y_v55_melik_37
 y_v55_melik_41 y_v55_melik_51 y_v55_melik_52 y_v55_melik_59 y_v55_melik_69
 y_v55_melik_78 y_v55_melik_80 y_v55_okul_0 y_v55_okul_2 y_v55_okul_6
 y_v55_okul_7 y_v55_okul_10 y_v55_okul_12 y_v55_okul_13 y_v55_okul_16
 y_v55_okul_19 y_v55_okul_24 y_v55_okul_25 y_v55_okul_28 y_v55_okul_31
 y_v55_okul_32 y_v55_okul_34 y_v55_okul_37 y_v55_okul_38 y_v55_okul_39
 y_v55_okul_41 y_v55_okul_42 y_v55_okul_45 y_v55_okul_46 y_v55_okul_49
 y_v55_okul_51 y_v55_okul_52 y_v55_okul_53 y_v55_okul_54 y_v55_okul_56
 y_v55_okul_57 y_v55_okul_58 y_v55_okul_59 y_v55_okul_62 y_v55_okul_63
 y_v55_okul_67 y_v55_okul_68 y_v55_okul_69 y_v55_okul_70 y_v55_okul_71
 y_v56_melik_7 y_v56_melik_10 y_v56_melik_21 y_v56_melik_24 y_v56_melik_28
 y_v56_melik_37 y_v56_melik_39 y_v56_melik_59 y_v56_melik_63 y_v56_melik_69
 y_v56_melik_78 y_v56_melik_80 y_v56_okul_0 y_v56_okul_2 y_v56_okul_3
 y_v56_okul_6 y_v56_okul_7 y_v56_okul_8 y_v56_okul_10 y_v56_okul_11
 y_v56_okul_12 y_v56_okul_13 y_v56_okul_19 y_v56_okul_24 y_v56_okul_25
 y_v56_okul_31 y_v56_okul_32 y_v56_okul_34 y_v56_okul_37 y_v56_okul_39
 y_v56_okul_40 y_v56_okul_41 y_v56_okul_42 y_v56_okul_45 y_v56_okul_49
 y_v56_okul_51 y_v56_okul_52 y_v56_okul_53 y_v56_okul_54 y_v56_okul_56
 y_v56_okul_57 y_v56_okul_58 y_v56_okul_59 y_v56_okul_61 y_v56_okul_66
 y_v56_okul_67 y_v56_okul_68 y_v56_okul_69 y_v56_okul_70 y_v56_okul_71
 y_v57_melik_7 y_v57_melik_10 y_v57_melik_11 y_v57_melik_24 y_v57_melik_34
 y_v57_melik_37 y_v57_melik_39 y_v57_melik_47 y_v57_melik_49 y_v57_melik_63
 y_v57_melik_69 y_v57_melik_78 y_v57_okul_0 y_v57_okul_2 y_v57_okul_3
 y_v57_okul_4 y_v57_okul_6 y_v57_okul_8 y_v57_okul_10 y_v57_okul_11
 y_v57_okul_12 y_v57_okul_19 y_v57_okul_24 y_v57_okul_25 y_v57_okul_32
 y_v57_okul_34 y_v57_okul_37 y_v57_okul_39 y_v57_okul_40 y_v57_okul_41
 y_v57_okul_42 y_v57_okul_45 y_v57_okul_49 y_v57_okul_52 y_v57_okul_53
 y_v57_okul_54 y_v57_okul_58 y_v57_okul_59 y_v57_okul_61 y_v57_okul_65
 y_v57_okul_66 y_v57_okul_67 y_v57_okul_68 y_v57_okul_69 y_v57_okul_70
 y_v57_okul_71 y_v58_melik_6 y_v58_melik_7 y_v58_melik_10 y_v58_melik_11
 y_v58_melik_26 y_v58_melik_34 y_v58_melik_37 y_v58_melik_47 y_v58_melik_49
 y_v58_melik_63 y_v58_melik_64 y_v58_melik_68 y_v58_okul_2 y_v58_okul_3
 y_v58_okul_4 y_v58_okul_6 y_v58_okul_8 y_v58_okul_10 y_v58_okul_11
 y_v58_okul_12 y_v58_okul_19 y_v58_okul_25 y_v58_okul_32 y_v58_okul_34
 y_v58_okul_39 y_v58_okul_40 y_v58_okul_41 y_v58_okul_45 y_v58_okul_49
 y_v58_okul_52 y_v58_okul_53 y_v58_okul_54 y_v58_okul_58 y_v58_okul_59
 y_v58_okul_61 y_v58_okul_65 y_v58_okul_66 y_v58_okul_68 y_v58_okul_70
 y_v58_okul_71 y_v59_melik_6 y_v59_melik_7 y_v59_melik_23 y_v59_melik_26
 y_v59_melik_47 y_v59_melik_49 y_v59_melik_50 y_v59_melik_63 y_v59_melik_64
 y_v59_melik_68 y_v59_okul_3 y_v59_okul_4 y_v59_okul_6 y_v59_okul_8
 y_v59_okul_11 y_v59_okul_12 y_v59_okul_19 y_v59_okul_25 y_v59_okul_32
 y_v59_okul_34 y_v59_okul_40 y_v59_okul_41 y_v59_okul_45 y_v59_okul_49
 y_v59_okul_53 y_v59_okul_59 y_v59_okul_61 y_v59_okul_65 y_v59_okul_66
 y_v59_okul_68 y_v59_okul_70 y_v59_okul_71 y_v60_melik_23 y_v60_melik_47
 y_v60_melik_49 y_v60_melik_50 y_v60_melik_64 y_v60_melik_68 y_v60_okul_3
 y_v60_okul_4 y_v60_okul_6 y_v60_okul_8 y_v60_okul_11 y_v60_okul_19
 y_v60_okul_32 y_v60_okul_34 y_v60_okul_40 y_v60_okul_49 y_v60_okul_59
 y_v60_okul_61 y_v60_okul_65 y_v60_okul_66 y_v60_okul_68 y_v60_okul_70
 y_v61_melik_32 y_v61_melik_36 y_v61_melik_54 y_v61_melik_71 y_v61_melik_73
 y_v61_melik_79 y_v61_okul_0 y_v61_okul_7 y_v61_okul_13 y_v61_okul_16
 y_v61_okul_17 y_v61_okul_20 y_v61_okul_28 y_v61_okul_31 y_v61_okul_37
 y_v61_okul_38 y_v61_okul_42 y_v61_okul_48 y_v61_okul_51 y_v61_okul_57
 y_v61_okul_62 y_v61_okul_63 y_v62_melik_1 y_v62_melik_5 y_v62_melik_32
 y_v62_melik_36 y_v62_melik_41 y_v62_melik_44 y_v62_melik_54 y_v62_melik_71
 y_v62_melik_73 y_v62_melik_79 y_v62_okul_0 y_v62_okul_7 y_v62_okul_10
 y_v62_okul_13 y_v62_okul_16 y_v62_okul_17 y_v62_okul_20 y_v62_okul_24
 y_v62_okul_28 y_v62_okul_31 y_v62_okul_37 y_v62_okul_38 y_v62_okul_39
 y_v62_okul_42 y_v62_okul_48 y_v62_okul_50 y_v62_okul_51 y_v62_okul_52
 y_v62_okul_57 y_v62_okul_62 y_v62_okul_63 y_v62_okul_69 y_v63_melik_1
 y_v63_melik_2 y_v63_melik_5 y_v63_melik_12 y_v63_melik_28 y_v63_melik_36
 y_v63_melik_41 y_v63_melik_44 y_v63_melik_52 y_v63_melik_54 y_v63_melik_71
 y_v63_melik_73 y_v63_okul_0 y_v63_okul_2 y_v63_okul_7 y_v63_okul_10
 y_v63_okul_12 y_v63_okul_13 y_v63_okul_16 y_v63_okul_17 y_v63_okul_20
 y_v63_okul_24 y_v63_okul_25 y_v63_okul_28 y_v63_okul_31 y_v63_okul_37
 y_v63_okul_38 y_v63_okul_39 y_v63_okul_41 y_v63_okul_42 y_v63_okul_43
 y_v63_okul_48 y_v63_okul_50 y_v63_okul_51 y_v63_okul_52 y_v63_okul_54
 y_v63_okul_57 y_v63_okul_62 y_v63_okul_63 y_v63_okul_69 y_v64_melik_1
 y_v64_melik_2 y_v64_melik_12 y_v64_melik_21 y_v64_melik_28 y_v64_melik_41
 y_v64_melik_52 y_v64_melik_62 y_v64_melik_71 y_v64_melik_73 y_v64_melik_78
 y_v64_melik_80 y_v64_okul_0 y_v64_okul_2 y_v64_okul_7 y_v64_okul_10
 y_v64_okul_12 y_v64_okul_13 y_v64_okul_16 y_v64_okul_17 y_v64_okul_20
 y_v64_okul_24 y_v64_okul_25 y_v64_okul_27 y_v64_okul_28 y_v64_okul_31
 y_v64_okul_32 y_v64_okul_37 y_v64_okul_38 y_v64_okul_39 y_v64_okul_41
 y_v64_okul_42 y_v64_okul_43 y_v64_okul_45 y_v64_okul_48 y_v64_okul_49
 y_v64_okul_50 y_v64_okul_51 y_v64_okul_52 y_v64_okul_53 y_v64_okul_54
 y_v64_okul_57 y_v64_okul_62 y_v64_okul_63 y_v64_okul_68 y_v64_okul_69
 y_v65_melik_1 y_v65_melik_10 y_v65_melik_21 y_v65_melik_28 y_v65_melik_35
 y_v65_melik_39 y_v65_melik_41 y_v65_melik_52 y_v65_melik_62 y_v65_melik_69
 y_v65_melik_78 y_v65_melik_80 y_v65_okul_0 y_v65_okul_2 y_v65_okul_6
 y_v65_okul_7 y_v65_okul_8 y_v65_okul_10 y_v65_okul_12 y_v65_okul_13
 y_v65_okul_20 y_v65_okul_24 y_v65_okul_25 y_v65_okul_27 y_v65_okul_28
 y_v65_okul_31 y_v65_okul_32 y_v65_okul_34 y_v65_okul_37 y_v65_okul_38
 y_v65_okul_39 y_v65_okul_41 y_v65_okul_42 y_v65_okul_43 y_v65_okul_45
 y_v65_okul_48 y_v65_okul_49 y_v65_okul_50 y_v65_okul_51 y_v65_okul_52
 y_v65_okul_53 y_v65_okul_54 y_v65_okul_57 y_v65_okul_59 y_v65_okul_62
 y_v65_okul_63 y_v65_okul_64 y_v65_okul_68 y_v65_okul_69 y_v65_okul_70
 y_v66_melik_4 y_v66_melik_10 y_v66_melik_11 y_v66_melik_21 y_v66_melik_28
 y_v66_melik_35 y_v66_melik_37 y_v66_melik_39 y_v66_melik_52 y_v66_melik_63
 y_v66_melik_69 y_v66_melik_78 y_v66_okul_0 y_v66_okul_2 y_v66_okul_3
 y_v66_okul_4 y_v66_okul_6 y_v66_okul_7 y_v66_okul_8 y_v66_okul_10 y_v66_okul_11
 y_v66_okul_12 y_v66_okul_13 y_v66_okul_19 y_v66_okul_24 y_v66_okul_25
 y_v66_okul_27 y_v66_okul_31 y_v66_okul_32 y_v66_okul_34 y_v66_okul_37
 y_v66_okul_38 y_v66_okul_39 y_v66_okul_41 y_v66_okul_42 y_v66_okul_43
 y_v66_okul_44 y_v66_okul_45 y_v66_okul_49 y_v66_okul_50 y_v66_okul_51
 y_v66_okul_52 y_v66_okul_53 y_v66_okul_54 y_v66_okul_59 y_v66_okul_61
 y_v66_okul_64 y_v66_okul_68 y_v66_okul_69 y_v66_okul_70 y_v67_melik_4
 y_v67_melik_6 y_v67_melik_7 y_v67_melik_9 y_v67_melik_10 y_v67_melik_11
 y_v67_melik_21 y_v67_melik_37 y_v67_melik_39 y_v67_melik_49 y_v67_melik_63
 y_v67_melik_78 y_v67_okul_0 y_v67_okul_2 y_v67_okul_3 y_v67_okul_4 y_v67_okul_6
 y_v67_okul_8 y_v67_okul_10 y_v67_okul_11 y_v67_okul_12 y_v67_okul_13
 y_v67_okul_19 y_v67_okul_23 y_v67_okul_24 y_v67_okul_25 y_v67_okul_27
 y_v67_okul_32 y_v67_okul_34 y_v67_okul_37 y_v67_okul_39 y_v67_okul_41
 y_v67_okul_42 y_v67_okul_43 y_v67_okul_44 y_v67_okul_45 y_v67_okul_49
 y_v67_okul_52 y_v67_okul_53 y_v67_okul_54 y_v67_okul_59 y_v67_okul_61
 y_v67_okul_64 y_v67_okul_66 y_v67_okul_68 y_v67_okul_70 y_v68_melik_6
 y_v68_melik_7 y_v68_melik_9 y_v68_melik_10 y_v68_melik_11 y_v68_melik_13
 y_v68_melik_23 y_v68_melik_39 y_v68_melik_47 y_v68_melik_49 y_v68_melik_63
 y_v68_melik_64 y_v68_okul_3 y_v68_okul_4 y_v68_okul_6 y_v68_okul_8
 y_v68_okul_10 y_v68_okul_11 y_v68_okul_12 y_v68_okul_19 y_v68_okul_23
 y_v68_okul_24 y_v68_okul_25 y_v68_okul_27 y_v68_okul_32 y_v68_okul_34
 y_v68_okul_39 y_v68_okul_41 y_v68_okul_44 y_v68_okul_45 y_v68_okul_49
 y_v68_okul_52 y_v68_okul_53 y_v68_okul_54 y_v68_okul_59 y_v68_okul_61
 y_v68_okul_64 y_v68_okul_66 y_v68_okul_68 y_v68_okul_70 y_v69_melik_6
 y_v69_melik_11 y_v69_melik_13 y_v69_melik_23 y_v69_melik_33 y_v69_melik_47
 y_v69_melik_49 y_v69_melik_63 y_v69_melik_64 y_v69_melik_68 y_v69_okul_3
 y_v69_okul_4 y_v69_okul_6 y_v69_okul_8 y_v69_okul_11 y_v69_okul_12
 y_v69_okul_19 y_v69_okul_23 y_v69_okul_25 y_v69_okul_32 y_v69_okul_34
 y_v69_okul_41 y_v69_okul_44 y_v69_okul_45 y_v69_okul_49 y_v69_okul_54
 y_v69_okul_59 y_v69_okul_61 y_v69_okul_64 y_v69_okul_66 y_v69_okul_68
 y_v69_okul_70 y_v70_melik_6 y_v70_melik_23 y_v70_melik_33 y_v70_melik_49
 y_v70_melik_64 y_v70_melik_68 y_v70_okul_3 y_v70_okul_4 y_v70_okul_6
 y_v70_okul_8 y_v70_okul_11 y_v70_okul_19 y_v70_okul_23 y_v70_okul_32
 y_v70_okul_44 y_v70_okul_45 y_v70_okul_49 y_v70_okul_59 y_v70_okul_61
 y_v70_okul_66 y_v70_okul_68 y_v70_okul_70 y_v71_melik_5 y_v71_melik_32
 y_v71_melik_36 y_v71_melik_54 y_v71_melik_58 y_v71_melik_73 y_v71_okul_7
 y_v71_okul_13 y_v71_okul_17 y_v71_okul_20 y_v71_okul_28 y_v71_okul_31
 y_v71_okul_37 y_v71_okul_38 y_v71_okul_42 y_v71_okul_48 y_v71_okul_50
 y_v71_okul_51 y_v71_okul_62 y_v71_okul_63 y_v72_melik_1 y_v72_melik_2
 y_v72_melik_5 y_v72_melik_14 y_v72_melik_32 y_v72_melik_36 y_v72_melik_54
 y_v72_melik_58 y_v72_melik_71 y_v72_melik_73 y_v72_okul_0 y_v72_okul_7
 y_v72_okul_10 y_v72_okul_13 y_v72_okul_17 y_v72_okul_20 y_v72_okul_24
 y_v72_okul_28 y_v72_okul_31 y_v72_okul_37 y_v72_okul_38 y_v72_okul_39
 y_v72_okul_42 y_v72_okul_43 y_v72_okul_48 y_v72_okul_50 y_v72_okul_51
 y_v72_okul_62 y_v72_okul_63 y_v73_melik_1 y_v73_melik_2 y_v73_melik_5
 y_v73_melik_14 y_v73_melik_15 y_v73_melik_32 y_v73_melik_36 y_v73_melik_41
 y_v73_melik_52 y_v73_melik_62 y_v73_melik_71 y_v73_melik_73 y_v73_okul_0
 y_v73_okul_7 y_v73_okul_10 y_v73_okul_12 y_v73_okul_13 y_v73_okul_17
 y_v73_okul_20 y_v73_okul_24 y_v73_okul_25 y_v73_okul_27 y_v73_okul_28
 y_v73_okul_31 y_v73_okul_37 y_v73_okul_38 y_v73_okul_39 y_v73_okul_42
 y_v73_okul_43 y_v73_okul_48 y_v73_okul_50 y_v73_okul_51 y_v73_okul_52
 y_v73_okul_54 y_v73_okul_62 y_v73_okul_63 y_v74_melik_1 y_v74_melik_2
 y_v74_melik_5 y_v74_melik_15 y_v74_melik_21 y_v74_melik_25 y_v74_melik_28
 y_v74_melik_35 y_v74_melik_41 y_v74_melik_52 y_v74_melik_62 y_v74_melik_73
 y_v74_okul_0 y_v74_okul_7 y_v74_okul_10 y_v74_okul_12 y_v74_okul_13
 y_v74_okul_17 y_v74_okul_20 y_v74_okul_24 y_v74_okul_25 y_v74_okul_27
 y_v74_okul_28 y_v74_okul_31 y_v74_okul_32 y_v74_okul_37 y_v74_okul_38
 y_v74_okul_39 y_v74_okul_41 y_v74_okul_42 y_v74_okul_43 y_v74_okul_45
 y_v74_okul_48 y_v74_okul_49 y_v74_okul_50 y_v74_okul_51 y_v74_okul_52
 y_v74_okul_54 y_v74_okul_62 y_v74_okul_63 y_v74_okul_64 y_v75_melik_1
 y_v75_melik_2 y_v75_melik_4 y_v75_melik_8 y_v75_melik_21 y_v75_melik_25
 y_v75_melik_28 y_v75_melik_35 y_v75_melik_39 y_v75_melik_52 y_v75_melik_62
 y_v75_melik_78 y_v75_okul_0 y_v75_okul_7 y_v75_okul_8 y_v75_okul_10
 y_v75_okul_12 y_v75_okul_13 y_v75_okul_17 y_v75_okul_20 y_v75_okul_24
 y_v75_okul_25 y_v75_okul_27 y_v75_okul_28 y_v75_okul_31 y_v75_okul_32
 y_v75_okul_37 y_v75_okul_38 y_v75_okul_39 y_v75_okul_41 y_v75_okul_42
 y_v75_okul_43 y_v75_okul_44 y_v75_okul_45 y_v75_okul_48 y_v75_okul_49
 y_v75_okul_50 y_v75_okul_51 y_v75_okul_52 y_v75_okul_54 y_v75_okul_59
 y_v75_okul_63 y_v75_okul_64 y_v75_okul_68 y_v75_okul_70 y_v76_melik_3
 y_v76_melik_4 y_v76_melik_8 y_v76_melik_9 y_v76_melik_10 y_v76_melik_11
 y_v76_melik_21 y_v76_melik_35 y_v76_melik_39 y_v76_melik_52 y_v76_melik_62
 y_v76_melik_78 y_v76_okul_0 y_v76_okul_4 y_v76_okul_6 y_v76_okul_7 y_v76_okul_8
 y_v76_okul_10 y_v76_okul_11 y_v76_okul_12 y_v76_okul_13 y_v76_okul_23
 y_v76_okul_24 y_v76_okul_25 y_v76_okul_27 y_v76_okul_31 y_v76_okul_32
 y_v76_okul_37 y_v76_okul_38 y_v76_okul_39 y_v76_okul_41 y_v76_okul_42
 y_v76_okul_43 y_v76_okul_44 y_v76_okul_45 y_v76_okul_48 y_v76_okul_49
 y_v76_okul_50 y_v76_okul_52 y_v76_okul_54 y_v76_okul_59 y_v76_okul_61
 y_v76_okul_64 y_v76_okul_68 y_v76_okul_70 y_v77_melik_3 y_v77_melik_4
 y_v77_melik_6 y_v77_melik_9 y_v77_melik_10 y_v77_melik_11 y_v77_melik_13
 y_v77_melik_21 y_v77_melik_35 y_v77_melik_39 y_v77_melik_63 y_v77_melik_75
 y_v77_okul_3 y_v77_okul_4 y_v77_okul_6 y_v77_okul_8 y_v77_okul_10 y_v77_okul_11
 y_v77_okul_12 y_v77_okul_13 y_v77_okul_23 y_v77_okul_24 y_v77_okul_25
 y_v77_okul_27 y_v77_okul_32 y_v77_okul_37 y_v77_okul_39 y_v77_okul_41
 y_v77_okul_42 y_v77_okul_43 y_v77_okul_44 y_v77_okul_45 y_v77_okul_49
 y_v77_okul_50 y_v77_okul_52 y_v77_okul_54 y_v77_okul_59 y_v77_okul_61
 y_v77_okul_64 y_v77_okul_68 y_v77_okul_70 y_v78_melik_4 y_v78_melik_6
 y_v78_melik_9 y_v78_melik_11 y_v78_melik_13 y_v78_melik_16 y_v78_melik_23
 y_v78_melik_33 y_v78_melik_39 y_v78_melik_49 y_v78_melik_63 y_v78_melik_75
 y_v78_okul_3 y_v78_okul_4 y_v78_okul_6 y_v78_okul_8 y_v78_okul_10 y_v78_okul_11
 y_v78_okul_12 y_v78_okul_23 y_v78_okul_24 y_v78_okul_25 y_v78_okul_27
 y_v78_okul_32 y_v78_okul_39 y_v78_okul_41 y_v78_okul_43 y_v78_okul_44
 y_v78_okul_45 y_v78_okul_49 y_v78_okul_54 y_v78_okul_59 y_v78_okul_61
 y_v78_okul_64 y_v78_okul_68 y_v78_okul_70 y_v79_melik_6 y_v79_melik_9
 y_v79_melik_11 y_v79_melik_13 y_v79_melik_16 y_v79_melik_17 y_v79_melik_23
 y_v79_melik_33 y_v79_melik_49 y_v79_melik_64 y_v79_okul_3 y_v79_okul_4
 y_v79_okul_6 y_v79_okul_8 y_v79_okul_11 y_v79_okul_12 y_v79_okul_23
 y_v79_okul_25 y_v79_okul_27 y_v79_okul_32 y_v79_okul_44 y_v79_okul_45
 y_v79_okul_49 y_v79_okul_54 y_v79_okul_59 y_v79_okul_61 y_v79_okul_64
 y_v79_okul_68 y_v79_okul_70 y_v80_melik_6 y_v80_melik_13 y_v80_melik_17
 y_v80_melik_23 y_v80_melik_33 y_v80_melik_64 y_v80_okul_3 y_v80_okul_4
 y_v80_okul_6 y_v80_okul_8 y_v80_okul_11 y_v80_okul_23 y_v80_okul_32
 y_v80_okul_44 y_v80_okul_45 y_v80_okul_49 y_v80_okul_59 y_v80_okul_61
 y_v80_okul_64 y_v80_okul_70 y_v81_melik_5 y_v81_melik_14 y_v81_melik_32
 y_v81_melik_36 y_v81_melik_58 y_v81_okul_7 y_v81_okul_13 y_v81_okul_17
 y_v81_okul_20 y_v81_okul_28 y_v81_okul_31 y_v81_okul_38 y_v81_okul_42
 y_v81_okul_48 y_v81_okul_50 y_v81_okul_63 y_v82_melik_2 y_v82_melik_5
 y_v82_melik_14 y_v82_melik_15 y_v82_melik_32 y_v82_melik_36 y_v82_melik_58
 y_v82_melik_73 y_v82_okul_7 y_v82_okul_10 y_v82_okul_13 y_v82_okul_17
 y_v82_okul_20 y_v82_okul_24 y_v82_okul_28 y_v82_okul_31 y_v82_okul_37
 y_v82_okul_38 y_v82_okul_42 y_v82_okul_43 y_v82_okul_48 y_v82_okul_50
 y_v82_okul_63 y_v83_melik_1 y_v83_melik_2 y_v83_melik_5 y_v83_melik_14
 y_v83_melik_15 y_v83_melik_25 y_v83_melik_32 y_v83_melik_58 y_v83_melik_62
 y_v83_melik_73 y_v83_okul_7 y_v83_okul_10 y_v83_okul_12 y_v83_okul_13
 y_v83_okul_17 y_v83_okul_20 y_v83_okul_24 y_v83_okul_27 y_v83_okul_28
 y_v83_okul_31 y_v83_okul_37 y_v83_okul_38 y_v83_okul_39 y_v83_okul_42
 y_v83_okul_43 y_v83_okul_48 y_v83_okul_50 y_v83_okul_54 y_v83_okul_63
 y_v84_melik_1 y_v84_melik_2 y_v84_melik_5 y_v84_melik_8 y_v84_melik_14
 y_v84_melik_15 y_v84_melik_25 y_v84_melik_35 y_v84_melik_52 y_v84_melik_62
 y_v84_okul_7 y_v84_okul_10 y_v84_okul_12 y_v84_okul_13 y_v84_okul_17
 y_v84_okul_20 y_v84_okul_24 y_v84_okul_25 y_v84_okul_27 y_v84_okul_28
 y_v84_okul_31 y_v84_okul_32 y_v84_okul_37 y_v84_okul_38 y_v84_okul_39
 y_v84_okul_42 y_v84_okul_43 y_v84_okul_45 y_v84_okul_48 y_v84_okul_50
 y_v84_okul_54 y_v84_okul_63 y_v84_okul_64 y_v85_melik_2 y_v85_melik_3
 y_v85_melik_4 y_v85_melik_8 y_v85_melik_15 y_v85_melik_21 y_v85_melik_25
 y_v85_melik_35 y_v85_melik_52 y_v85_melik_62 y_v85_okul_7 y_v85_okul_8
 y_v85_okul_10 y_v85_okul_12 y_v85_okul_13 y_v85_okul_17 y_v85_okul_20
 y_v85_okul_24 y_v85_okul_25 y_v85_okul_27 y_v85_okul_31 y_v85_okul_32
 y_v85_okul_37 y_v85_okul_38 y_v85_okul_39 y_v85_okul_42 y_v85_okul_43
 y_v85_okul_44 y_v85_okul_45 y_v85_okul_48 y_v85_okul_49 y_v85_okul_50
 y_v85_okul_54 y_v85_okul_63 y_v85_okul_64 y_v85_okul_70 y_v86_melik_3
 y_v86_melik_4 y_v86_melik_8 y_v86_melik_9 y_v86_melik_21 y_v86_melik_25
 y_v86_melik_35 y_v86_melik_39 y_v86_melik_62 y_v86_melik_75 y_v86_okul_4
 y_v86_okul_8 y_v86_okul_10 y_v86_okul_12 y_v86_okul_13 y_v86_okul_23
 y_v86_okul_24 y_v86_okul_25 y_v86_okul_27 y_v86_okul_31 y_v86_okul_32
 y_v86_okul_37 y_v86_okul_38 y_v86_okul_39 y_v86_okul_42 y_v86_okul_43
 y_v86_okul_44 y_v86_okul_45 y_v86_okul_48 y_v86_okul_49 y_v86_okul_50
 y_v86_okul_54 y_v86_okul_59 y_v86_okul_61 y_v86_okul_64 y_v86_okul_70
 y_v87_melik_3 y_v87_melik_4 y_v87_melik_8 y_v87_melik_9 y_v87_melik_11
 y_v87_melik_13 y_v87_melik_16 y_v87_melik_35 y_v87_melik_39 y_v87_melik_75
 y_v87_okul_4 y_v87_okul_8 y_v87_okul_10 y_v87_okul_11 y_v87_okul_12
 y_v87_okul_13 y_v87_okul_23 y_v87_okul_24 y_v87_okul_25 y_v87_okul_27
 y_v87_okul_32 y_v87_okul_39 y_v87_okul_42 y_v87_okul_43 y_v87_okul_44
 y_v87_okul_45 y_v87_okul_49 y_v87_okul_50 y_v87_okul_54 y_v87_okul_59
 y_v87_okul_61 y_v87_okul_64 y_v87_okul_70 y_v88_melik_3 y_v88_melik_4
 y_v88_melik_6 y_v88_melik_9 y_v88_melik_11 y_v88_melik_13 y_v88_melik_16
 y_v88_melik_17 y_v88_melik_33 y_v88_melik_75 y_v88_okul_4 y_v88_okul_8
 y_v88_okul_10 y_v88_okul_11 y_v88_okul_12 y_v88_okul_23 y_v88_okul_24
 y_v88_okul_25 y_v88_okul_27 y_v88_okul_32 y_v88_okul_43 y_v88_okul_44
 y_v88_okul_45 y_v88_okul_49 y_v88_okul_54 y_v88_okul_59 y_v88_okul_61
 y_v88_okul_64 y_v88_okul_70 y_v89_melik_6 y_v89_melik_9 y_v89_melik_13
 y_v89_melik_16 y_v89_melik_17 y_v89_melik_23 y_v89_melik_33 y_v89_melik_75
 y_v89_okul_4 y_v89_okul_8 y_v89_okul_11 y_v89_okul_12 y_v89_okul_23
 y_v89_okul_27 y_v89_okul_32 y_v89_okul_44 y_v89_okul_45 y_v89_okul_49
 y_v89_okul_54 y_v89_okul_59 y_v89_okul_61 y_v89_okul_64 y_v89_okul_70
 y_v90_melik_13 y_v90_melik_16 y_v90_melik_17 y_v90_melik_23 y_v90_melik_33
 y_v90_okul_4 y_v90_okul_8 y_v90_okul_11 y_v90_okul_23 y_v90_okul_32
 y_v90_okul_44 y_v90_okul_45 y_v90_okul_59 y_v90_okul_61 y_v90_okul_64
 y_v90_okul_70 y_v91_melik_14 y_v91_melik_32 y_v91_melik_58 y_v91_okul_13
 y_v91_okul_17 y_v91_okul_20 y_v91_okul_31 y_v91_okul_38 y_v91_okul_48
 y_v91_okul_50 y_v91_okul_63 y_v92_melik_5 y_v92_melik_14 y_v92_melik_15
 y_v92_melik_32 y_v92_melik_58 y_v92_okul_13 y_v92_okul_17 y_v92_okul_20
 y_v92_okul_24 y_v92_okul_31 y_v92_okul_38 y_v92_okul_42 y_v92_okul_43
 y_v92_okul_48 y_v92_okul_50 y_v92_okul_63 y_v93_melik_2 y_v93_melik_5
 y_v93_melik_14 y_v93_melik_15 y_v93_melik_25 y_v93_melik_58 y_v93_okul_10
 y_v93_okul_13 y_v93_okul_17 y_v93_okul_20 y_v93_okul_24 y_v93_okul_27
 y_v93_okul_31 y_v93_okul_38 y_v93_okul_42 y_v93_okul_43 y_v93_okul_48
 y_v93_okul_50 y_v93_okul_54 y_v93_okul_63 y_v94_melik_2 y_v94_melik_8
 y_v94_melik_14 y_v94_melik_15 y_v94_melik_25 y_v94_melik_62 y_v94_okul_10
 y_v94_okul_12 y_v94_okul_13 y_v94_okul_17 y_v94_okul_20 y_v94_okul_24
 y_v94_okul_27 y_v94_okul_31 y_v94_okul_38 y_v94_okul_42 y_v94_okul_43
 y_v94_okul_45 y_v94_okul_48 y_v94_okul_50 y_v94_okul_54 y_v94_okul_63
 y_v94_okul_64 y_v95_melik_3 y_v95_melik_8 y_v95_melik_15 y_v95_melik_25
 y_v95_melik_35 y_v95_melik_62 y_v95_okul_8 y_v95_okul_10 y_v95_okul_12
 y_v95_okul_13 y_v95_okul_17 y_v95_okul_20 y_v95_okul_24 y_v95_okul_27
 y_v95_okul_31 y_v95_okul_32 y_v95_okul_38 y_v95_okul_42 y_v95_okul_43
 y_v95_okul_44 y_v95_okul_45 y_v95_okul_48 y_v95_okul_50 y_v95_okul_54
 y_v95_okul_64 y_v96_melik_3 y_v96_melik_4 y_v96_melik_8 y_v96_melik_25
 y_v96_melik_35 y_v96_melik_75 y_v96_okul_4 y_v96_okul_8 y_v96_okul_10
 y_v96_okul_12 y_v96_okul_13 y_v96_okul_23 y_v96_okul_24 y_v96_okul_27
 y_v96_okul_32 y_v96_okul_38 y_v96_okul_42 y_v96_okul_43 y_v96_okul_44
 y_v96_okul_45 y_v96_okul_48 y_v96_okul_50 y_v96_okul_54 y_v96_okul_64
 y_v96_okul_70 y_v97_melik_3 y_v97_melik_4 y_v97_melik_8 y_v97_melik_9
 y_v97_melik_16 y_v97_melik_75 y_v97_okul_4 y_v97_okul_8 y_v97_okul_10
 y_v97_okul_12 y_v97_okul_13 y_v97_okul_23 y_v97_okul_24 y_v97_okul_27
 y_v97_okul_32 y_v97_okul_43 y_v97_okul_44 y_v97_okul_45 y_v97_okul_50
 y_v97_okul_54 y_v97_okul_61 y_v97_okul_64 y_v97_okul_70 y_v98_melik_3
 y_v98_melik_9 y_v98_melik_13 y_v98_melik_16 y_v98_melik_17 y_v98_melik_75
 y_v98_okul_4 y_v98_okul_8 y_v98_okul_12 y_v98_okul_23 y_v98_okul_24
 y_v98_okul_27 y_v98_okul_32 y_v98_okul_43 y_v98_okul_44 y_v98_okul_45
 y_v98_okul_54 y_v98_okul_61 y_v98_okul_64 y_v98_okul_70 y_v99_melik_13
 y_v99_melik_16 y_v99_melik_17 y_v99_melik_33 y_v99_melik_75 y_v99_okul_4
 y_v99_okul_8 y_v99_okul_23 y_v99_okul_27 y_v99_okul_32 y_v99_okul_44
 y_v99_okul_45 y_v99_okul_54 y_v99_okul_61 y_v99_okul_64 y_v99_okul_70
 y_v100_melik_16 y_v100_melik_17 y_v100_melik_33 y_v100_okul_4 y_v100_okul_8
 y_v100_okul_23 y_v100_okul_44 y_v100_okul_45 y_v100_okul_61 y_v100_okul_64
 y_v100_okul_70
End
