\ This file has been generated by DOcplex
\ ENCODING=ISO-8859-1
\Problem name: residential_ilp

Maximize
 obj: x_v12_R + x_v13_R + x_v14_R + x_v15_R + x_v16_R + x_v17_R + x_v18_R
      + x_v19_R + x_v20_R + x_v21_R + x_v22_R + x_v23_R + x_v24_R + x_v25_R
      + x_v1_R + x_v2_R + x_v3_R + x_v4_R + x_v5_R + x_v6_R + x_v7_R + x_v8_R
      + x_v9_R + x_v10_R + x_v11_R
Subject To
 single_type_v12: x_v12_hastnae + x_v12_R <= 1
 single_type_v13: x_v13_hastnae + x_v13_R <= 1
 single_type_v14: x_v14_hastnae + x_v14_R <= 1
 single_type_v15: x_v15_hastnae + x_v15_R <= 1
 single_type_v16: x_v16_hastnae + x_v16_R <= 1
 single_type_v17: x_v17_hastnae + x_v17_R <= 1
 single_type_v18: x_v18_hastnae + x_v18_R <= 1
 single_type_v19: x_v19_hastnae + x_v19_R <= 1
 single_type_v20: x_v20_hastnae + x_v20_R <= 1
 single_type_v21: x_v21_hastnae + x_v21_R <= 1
 single_type_v22: x_v22_hastnae + x_v22_R <= 1
 single_type_v23: x_v23_hastnae + x_v23_R <= 1
 single_type_v24: x_v24_hastnae + x_v24_R <= 1
 single_type_v25: x_v25_hastnae + x_v25_R <= 1
 single_type_v1: x_v1_hastnae + x_v1_R <= 1
 single_type_v2: x_v2_hastnae + x_v2_R <= 1
 single_type_v3: x_v3_hastnae + x_v3_R <= 1
 single_type_v4: x_v4_hastnae + x_v4_R <= 1
 single_type_v5: x_v5_hastnae + x_v5_R <= 1
 single_type_v6: x_v6_hastnae + x_v6_R <= 1
 single_type_v7: x_v7_hastnae + x_v7_R <= 1
 single_type_v8: x_v8_hastnae + x_v8_R <= 1
 single_type_v9: x_v9_hastnae + x_v9_R <= 1
 single_type_v10: x_v10_hastnae + x_v10_R <= 1
 single_type_v11: x_v11_hastnae + x_v11_R <= 1
 rainbow_v12_hastnae: u_hastnae_0 + u_hastnae_1 + u_hastnae_2 + u_hastnae_3
                      + u_hastnae_4 + u_hastnae_5 + u_hastnae_6 + u_hastnae_7
                      + u_hastnae_8 + u_hastnae_9 + u_hastnae_10 + u_hastnae_11
                      + u_hastnae_12 + u_hastnae_13 + u_hastnae_15
                      + u_hastnae_16 + u_hastnae_17 + u_hastnae_18
                      + u_hastnae_19 + u_hastnae_20 + u_hastnae_21
                      + u_hastnae_22 + u_hastnae_23 + u_hastnae_24
                      + u_hastnae_25 + u_hastnae_26 + u_hastnae_27
                      + u_hastnae_28 + u_hastnae_29 + u_hastnae_30
                      + u_hastnae_31 + u_hastnae_32 + u_hastnae_33
                      + u_hastnae_34 + u_hastnae_35 + u_hastnae_36
                      + u_hastnae_37 + u_hastnae_38 + u_hastnae_39 - x_v12_R
                       >= 0
 rainbow_v13_hastnae: u_hastnae_0 + u_hastnae_1 + u_hastnae_2 + u_hastnae_3
                      + u_hastnae_4 + u_hastnae_5 + u_hastnae_6 + u_hastnae_7
                      + u_hastnae_8 + u_hastnae_9 + u_hastnae_10 + u_hastnae_11
                      + u_hastnae_12 + u_hastnae_13 + u_hastnae_14
                      + u_hastnae_15 + u_hastnae_16 + u_hastnae_17
                      + u_hastnae_18 + u_hastnae_19 + u_hastnae_20
                      + u_hastnae_21 + u_hastnae_22 + u_hastnae_23
                      + u_hastnae_24 + u_hastnae_25 + u_hastnae_26
                      + u_hastnae_27 + u_hastnae_28 + u_hastnae_29
                      + u_hastnae_30 + u_hastnae_31 + u_hastnae_32
                      + u_hastnae_33 + u_hastnae_34 + u_hastnae_35
                      + u_hastnae_36 + u_hastnae_37 + u_hastnae_38
                      + u_hastnae_39 - x_v13_R >= 0
 rainbow_v14_hastnae: u_hastnae_0 + u_hastnae_1 + u_hastnae_3 + u_hastnae_4
                      + u_hastnae_5 + u_hastnae_6 + u_hastnae_7 + u_hastnae_8
                      + u_hastnae_9 + u_hastnae_10 + u_hastnae_11 + u_hastnae_12
                      + u_hastnae_13 + u_hastnae_14 + u_hastnae_15
                      + u_hastnae_16 + u_hastnae_17 + u_hastnae_18
                      + u_hastnae_19 + u_hastnae_20 + u_hastnae_21
                      + u_hastnae_22 + u_hastnae_23 + u_hastnae_24
                      + u_hastnae_25 + u_hastnae_26 + u_hastnae_27
                      + u_hastnae_28 + u_hastnae_29 + u_hastnae_30
                      + u_hastnae_31 + u_hastnae_32 + u_hastnae_33
                      + u_hastnae_34 + u_hastnae_35 + u_hastnae_36
                      + u_hastnae_37 + u_hastnae_38 + u_hastnae_39 - x_v14_R
                       >= 0
 rainbow_v15_hastnae: u_hastnae_0 + u_hastnae_1 + u_hastnae_3 + u_hastnae_4
                      + u_hastnae_5 + u_hastnae_6 + u_hastnae_12 + u_hastnae_13
                      + u_hastnae_14 + u_hastnae_15 + u_hastnae_16
                      + u_hastnae_17 + u_hastnae_18 + u_hastnae_19
                      + u_hastnae_20 + u_hastnae_21 + u_hastnae_22
                      + u_hastnae_23 + u_hastnae_24 + u_hastnae_25
                      + u_hastnae_26 + u_hastnae_27 + u_hastnae_28
                      + u_hastnae_29 + u_hastnae_31 + u_hastnae_32
                      + u_hastnae_33 + u_hastnae_34 + u_hastnae_35
                      + u_hastnae_37 + u_hastnae_39 - x_v15_R >= 0
 rainbow_v16_hastnae: u_hastnae_0 + u_hastnae_1 + u_hastnae_2 + u_hastnae_3
                      + u_hastnae_4 + u_hastnae_5 + u_hastnae_7 + u_hastnae_8
                      + u_hastnae_9 + u_hastnae_10 + u_hastnae_11 + u_hastnae_12
                      + u_hastnae_17 + u_hastnae_18 + u_hastnae_19
                      + u_hastnae_21 + u_hastnae_22 + u_hastnae_27
                      + u_hastnae_29 + u_hastnae_30 + u_hastnae_31
                      + u_hastnae_32 + u_hastnae_33 + u_hastnae_34
                      + u_hastnae_35 + u_hastnae_36 + u_hastnae_37
                      + u_hastnae_38 + u_hastnae_39 - x_v16_R >= 0
 rainbow_v17_hastnae: u_hastnae_0 + u_hastnae_1 + u_hastnae_2 + u_hastnae_3
                      + u_hastnae_4 + u_hastnae_5 + u_hastnae_6 + u_hastnae_7
                      + u_hastnae_8 + u_hastnae_9 + u_hastnae_10 + u_hastnae_11
                      + u_hastnae_12 + u_hastnae_15 + u_hastnae_16
                      + u_hastnae_17 + u_hastnae_18 + u_hastnae_19
                      + u_hastnae_20 + u_hastnae_21 + u_hastnae_22
                      + u_hastnae_24 + u_hastnae_25 + u_hastnae_26
                      + u_hastnae_27 + u_hastnae_28 + u_hastnae_29
                      + u_hastnae_30 + u_hastnae_31 + u_hastnae_32
                      + u_hastnae_33 + u_hastnae_34 + u_hastnae_35
                      + u_hastnae_36 + u_hastnae_37 + u_hastnae_38
                      + u_hastnae_39 - x_v17_R >= 0
 rainbow_v18_hastnae: u_hastnae_0 + u_hastnae_1 + u_hastnae_3 + u_hastnae_4
                      + u_hastnae_5 + u_hastnae_6 + u_hastnae_7 + u_hastnae_9
                      + u_hastnae_10 + u_hastnae_11 + u_hastnae_12
                      + u_hastnae_13 + u_hastnae_14 + u_hastnae_15
                      + u_hastnae_16 + u_hastnae_17 + u_hastnae_18
                      + u_hastnae_19 + u_hastnae_20 + u_hastnae_21
                      + u_hastnae_22 + u_hastnae_24 + u_hastnae_25
                      + u_hastnae_26 + u_hastnae_27 + u_hastnae_28
                      + u_hastnae_29 + u_hastnae_30 + u_hastnae_31
                      + u_hastnae_32 + u_hastnae_33 + u_hastnae_34
                      + u_hastnae_35 + u_hastnae_36 + u_hastnae_37
                      + u_hastnae_38 + u_hastnae_39 - x_v18_R >= 0
 rainbow_v19_hastnae: u_hastnae_0 + u_hastnae_1 + u_hastnae_3 + u_hastnae_4
                      + u_hastnae_5 + u_hastnae_6 + u_hastnae_7 + u_hastnae_9
                      + u_hastnae_10 + u_hastnae_11 + u_hastnae_12
                      + u_hastnae_13 + u_hastnae_14 + u_hastnae_15
                      + u_hastnae_17 + u_hastnae_18 + u_hastnae_19
                      + u_hastnae_20 + u_hastnae_21 + u_hastnae_22
                      + u_hastnae_23 + u_hastnae_24 + u_hastnae_25
                      + u_hastnae_26 + u_hastnae_27 + u_hastnae_28
                      + u_hastnae_29 + u_hastnae_30 + u_hastnae_31
                      + u_hastnae_32 + u_hastnae_33 + u_hastnae_34
                      + u_hastnae_35 + u_hastnae_36 + u_hastnae_37
                      + u_hastnae_38 + u_hastnae_39 - x_v19_R >= 0
 rainbow_v20_hastnae: u_hastnae_0 + u_hastnae_1 + u_hastnae_3 + u_hastnae_4
                      + u_hastnae_5 + u_hastnae_6 + u_hastnae_10 + u_hastnae_12
                      + u_hastnae_14 + u_hastnae_15 + u_hastnae_17
                      + u_hastnae_18 + u_hastnae_19 + u_hastnae_20
                      + u_hastnae_21 + u_hastnae_22 + u_hastnae_23
                      + u_hastnae_24 + u_hastnae_25 + u_hastnae_26
                      + u_hastnae_27 + u_hastnae_28 + u_hastnae_29
                      + u_hastnae_31 + u_hastnae_32 + u_hastnae_33
                      + u_hastnae_34 + u_hastnae_35 + u_hastnae_36
                      + u_hastnae_37 + u_hastnae_39 - x_v20_R >= 0
 rainbow_v21_hastnae: u_hastnae_1 + u_hastnae_2 + u_hastnae_3 + u_hastnae_4
                      + u_hastnae_5 + u_hastnae_7 + u_hastnae_9 + u_hastnae_10
                      + u_hastnae_11 + u_hastnae_12 + u_hastnae_17
                      + u_hastnae_18 + u_hastnae_19 + u_hastnae_21
                      + u_hastnae_22 + u_hastnae_27 + u_hastnae_30
                      + u_hastnae_31 + u_hastnae_32 + u_hastnae_33
                      + u_hastnae_36 + u_hastnae_39 - x_v21_R >= 0
 rainbow_v22_hastnae: u_hastnae_0 + u_hastnae_1 + u_hastnae_3 + u_hastnae_4
                      + u_hastnae_5 + u_hastnae_7 + u_hastnae_9 + u_hastnae_10
                      + u_hastnae_11 + u_hastnae_12 + u_hastnae_17
                      + u_hastnae_18 + u_hastnae_19 + u_hastnae_21
                      + u_hastnae_22 + u_hastnae_24 + u_hastnae_27
                      + u_hastnae_28 + u_hastnae_29 + u_hastnae_30
                      + u_hastnae_31 + u_hastnae_32 + u_hastnae_33
                      + u_hastnae_34 + u_hastnae_35 + u_hastnae_36
                      + u_hastnae_37 + u_hastnae_38 + u_hastnae_39 - x_v22_R
                       >= 0
 rainbow_v23_hastnae: u_hastnae_0 + u_hastnae_1 + u_hastnae_3 + u_hastnae_4
                      + u_hastnae_5 + u_hastnae_7 + u_hastnae_9 + u_hastnae_10
                      + u_hastnae_12 + u_hastnae_17 + u_hastnae_18
                      + u_hastnae_19 + u_hastnae_21 + u_hastnae_22
                      + u_hastnae_24 + u_hastnae_27 + u_hastnae_28
                      + u_hastnae_31 + u_hastnae_32 + u_hastnae_33
                      + u_hastnae_34 + u_hastnae_35 + u_hastnae_36
                      + u_hastnae_37 + u_hastnae_39 - x_v23_R >= 0
 rainbow_v24_hastnae: u_hastnae_0 + u_hastnae_1 + u_hastnae_3 + u_hastnae_4
                      + u_hastnae_5 + u_hastnae_7 + u_hastnae_9 + u_hastnae_10
                      + u_hastnae_12 + u_hastnae_15 + u_hastnae_17
                      + u_hastnae_18 + u_hastnae_19 + u_hastnae_20
                      + u_hastnae_21 + u_hastnae_22 + u_hastnae_24
                      + u_hastnae_25 + u_hastnae_26 + u_hastnae_27
                      + u_hastnae_28 + u_hastnae_31 + u_hastnae_32
                      + u_hastnae_33 + u_hastnae_34 + u_hastnae_35
                      + u_hastnae_36 + u_hastnae_37 + u_hastnae_39 - x_v24_R
                       >= 0
 rainbow_v25_hastnae: u_hastnae_0 + u_hastnae_1 + u_hastnae_3 + u_hastnae_4
                      + u_hastnae_5 + u_hastnae_10 + u_hastnae_12 + u_hastnae_14
                      + u_hastnae_15 + u_hastnae_17 + u_hastnae_18
                      + u_hastnae_20 + u_hastnae_21 + u_hastnae_22
                      + u_hastnae_24 + u_hastnae_27 + u_hastnae_28
                      + u_hastnae_31 + u_hastnae_33 + u_hastnae_34
                      + u_hastnae_35 + u_hastnae_36 + u_hastnae_37
                      + u_hastnae_39 - x_v25_R >= 0
 rainbow_v1_hastnae: u_hastnae_2 + u_hastnae_3 + u_hastnae_4 + u_hastnae_6
                     + u_hastnae_7 + u_hastnae_8 + u_hastnae_9 + u_hastnae_11
                     + u_hastnae_13 + u_hastnae_15 + u_hastnae_16 + u_hastnae_19
                     + u_hastnae_21 + u_hastnae_23 + u_hastnae_25 + u_hastnae_26
                     + u_hastnae_29 + u_hastnae_30 + u_hastnae_32 + u_hastnae_34
                     + u_hastnae_37 + u_hastnae_38 - x_v1_R >= 0
 rainbow_v2_hastnae: u_hastnae_0 + u_hastnae_2 + u_hastnae_3 + u_hastnae_4
                     + u_hastnae_6 + u_hastnae_8 + u_hastnae_9 + u_hastnae_11
                     + u_hastnae_13 + u_hastnae_14 + u_hastnae_15 + u_hastnae_16
                     + u_hastnae_17 + u_hastnae_18 + u_hastnae_19 + u_hastnae_20
                     + u_hastnae_21 + u_hastnae_23 + u_hastnae_25 + u_hastnae_26
                     + u_hastnae_27 + u_hastnae_29 + u_hastnae_30 + u_hastnae_31
                     + u_hastnae_32 + u_hastnae_34 + u_hastnae_35 + u_hastnae_37
                     + u_hastnae_38 - x_v2_R >= 0
 rainbow_v3_hastnae: u_hastnae_0 + u_hastnae_2 + u_hastnae_4 + u_hastnae_6
                     + u_hastnae_8 + u_hastnae_11 + u_hastnae_12 + u_hastnae_13
                     + u_hastnae_14 + u_hastnae_15 + u_hastnae_16 + u_hastnae_17
                     + u_hastnae_18 + u_hastnae_19 + u_hastnae_20 + u_hastnae_21
                     + u_hastnae_22 + u_hastnae_23 + u_hastnae_24 + u_hastnae_25
                     + u_hastnae_26 + u_hastnae_29 + u_hastnae_30 + u_hastnae_31
                     + u_hastnae_32 + u_hastnae_34 + u_hastnae_35 + u_hastnae_37
                     + u_hastnae_38 - x_v3_R >= 0
 rainbow_v4_hastnae: u_hastnae_0 + u_hastnae_2 + u_hastnae_4 + u_hastnae_5
                     + u_hastnae_6 + u_hastnae_8 + u_hastnae_11 + u_hastnae_13
                     + u_hastnae_14 + u_hastnae_15 + u_hastnae_16 + u_hastnae_18
                     + u_hastnae_19 + u_hastnae_20 + u_hastnae_21 + u_hastnae_22
                     + u_hastnae_23 + u_hastnae_24 + u_hastnae_25 + u_hastnae_26
                     + u_hastnae_29 + u_hastnae_30 + u_hastnae_31 + u_hastnae_32
                     + u_hastnae_33 + u_hastnae_34 + u_hastnae_35 + u_hastnae_37
                     + u_hastnae_38 - x_v4_R >= 0
 rainbow_v5_hastnae: u_hastnae_0 + u_hastnae_5 + u_hastnae_6 + u_hastnae_8
                     + u_hastnae_13 + u_hastnae_14 + u_hastnae_15 + u_hastnae_16
                     + u_hastnae_18 + u_hastnae_19 + u_hastnae_20 + u_hastnae_21
                     + u_hastnae_23 + u_hastnae_24 + u_hastnae_25 + u_hastnae_26
                     + u_hastnae_28 + u_hastnae_29 + u_hastnae_30 + u_hastnae_31
                     + u_hastnae_34 + u_hastnae_35 + u_hastnae_37 + u_hastnae_38
                     - x_v5_R >= 0
 rainbow_v6_hastnae: u_hastnae_2 + u_hastnae_3 + u_hastnae_4 + u_hastnae_6
                     + u_hastnae_7 + u_hastnae_8 + u_hastnae_9 + u_hastnae_11
                     + u_hastnae_13 + u_hastnae_15 + u_hastnae_16 + u_hastnae_17
                     + u_hastnae_18 + u_hastnae_19 + u_hastnae_21 + u_hastnae_23
                     + u_hastnae_25 + u_hastnae_26 + u_hastnae_27 + u_hastnae_29
                     + u_hastnae_30 + u_hastnae_32 + u_hastnae_34 + u_hastnae_35
                     + u_hastnae_36 + u_hastnae_37 + u_hastnae_38 - x_v6_R >= 0
 rainbow_v7_hastnae: u_hastnae_0 + u_hastnae_2 + u_hastnae_3 + u_hastnae_4
                     + u_hastnae_5 + u_hastnae_6 + u_hastnae_7 + u_hastnae_8
                     + u_hastnae_9 + u_hastnae_10 + u_hastnae_11 + u_hastnae_12
                     + u_hastnae_13 + u_hastnae_14 + u_hastnae_15 + u_hastnae_16
                     + u_hastnae_17 + u_hastnae_18 + u_hastnae_19 + u_hastnae_20
                     + u_hastnae_21 + u_hastnae_22 + u_hastnae_23 + u_hastnae_25
                     + u_hastnae_26 + u_hastnae_27 + u_hastnae_29 + u_hastnae_30
                     + u_hastnae_31 + u_hastnae_32 + u_hastnae_33 + u_hastnae_34
                     + u_hastnae_35 + u_hastnae_36 + u_hastnae_37 + u_hastnae_38
                     - x_v7_R >= 0
 rainbow_v8_hastnae: u_hastnae_0 + u_hastnae_2 + u_hastnae_3 + u_hastnae_4
                     + u_hastnae_5 + u_hastnae_6 + u_hastnae_8 + u_hastnae_9
                     + u_hastnae_11 + u_hastnae_12 + u_hastnae_13 + u_hastnae_14
                     + u_hastnae_15 + u_hastnae_16 + u_hastnae_17 + u_hastnae_18
                     + u_hastnae_19 + u_hastnae_20 + u_hastnae_21 + u_hastnae_22
                     + u_hastnae_23 + u_hastnae_24 + u_hastnae_25 + u_hastnae_26
                     + u_hastnae_27 + u_hastnae_28 + u_hastnae_29 + u_hastnae_30
                     + u_hastnae_31 + u_hastnae_32 + u_hastnae_33 + u_hastnae_34
                     + u_hastnae_35 + u_hastnae_37 + u_hastnae_38 - x_v8_R >= 0
 rainbow_v9_hastnae: u_hastnae_0 + u_hastnae_1 + u_hastnae_2 + u_hastnae_3
                     + u_hastnae_4 + u_hastnae_5 + u_hastnae_6 + u_hastnae_8
                     + u_hastnae_11 + u_hastnae_12 + u_hastnae_13 + u_hastnae_14
                     + u_hastnae_15 + u_hastnae_16 + u_hastnae_17 + u_hastnae_18
                     + u_hastnae_19 + u_hastnae_20 + u_hastnae_21 + u_hastnae_22
                     + u_hastnae_23 + u_hastnae_24 + u_hastnae_25 + u_hastnae_26
                     + u_hastnae_27 + u_hastnae_28 + u_hastnae_29 + u_hastnae_30
                     + u_hastnae_31 + u_hastnae_32 + u_hastnae_33 + u_hastnae_34
                     + u_hastnae_35 + u_hastnae_37 + u_hastnae_38 + u_hastnae_39
                     - x_v9_R >= 0
 rainbow_v10_hastnae: u_hastnae_0 + u_hastnae_5 + u_hastnae_6 + u_hastnae_8
                      + u_hastnae_12 + u_hastnae_13 + u_hastnae_14
                      + u_hastnae_15 + u_hastnae_16 + u_hastnae_17
                      + u_hastnae_18 + u_hastnae_19 + u_hastnae_20
                      + u_hastnae_21 + u_hastnae_22 + u_hastnae_23
                      + u_hastnae_24 + u_hastnae_25 + u_hastnae_26
                      + u_hastnae_28 + u_hastnae_29 + u_hastnae_30
                      + u_hastnae_31 + u_hastnae_33 + u_hastnae_34
                      + u_hastnae_35 + u_hastnae_37 + u_hastnae_38
                      + u_hastnae_39 - x_v10_R >= 0
 rainbow_v11_hastnae: u_hastnae_0 + u_hastnae_2 + u_hastnae_3 + u_hastnae_4
                      + u_hastnae_5 + u_hastnae_6 + u_hastnae_7 + u_hastnae_8
                      + u_hastnae_9 + u_hastnae_10 + u_hastnae_11 + u_hastnae_12
                      + u_hastnae_16 + u_hastnae_17 + u_hastnae_18
                      + u_hastnae_19 + u_hastnae_21 + u_hastnae_22
                      + u_hastnae_25 + u_hastnae_27 + u_hastnae_29
                      + u_hastnae_30 + u_hastnae_31 + u_hastnae_32
                      + u_hastnae_33 + u_hastnae_34 + u_hastnae_35
                      + u_hastnae_36 + u_hastnae_37 + u_hastnae_38 - x_v11_R
                       >= 0
 assign_eq_v12_hastnae: y_v12_hastnae_0 + y_v12_hastnae_1 + y_v12_hastnae_2
                        + y_v12_hastnae_3 + y_v12_hastnae_4 + y_v12_hastnae_5
                        + y_v12_hastnae_6 + y_v12_hastnae_7 + y_v12_hastnae_8
                        + y_v12_hastnae_9 + y_v12_hastnae_10 + y_v12_hastnae_11
                        + y_v12_hastnae_12 + y_v12_hastnae_13 + y_v12_hastnae_15
                        + y_v12_hastnae_16 + y_v12_hastnae_17 + y_v12_hastnae_18
                        + y_v12_hastnae_19 + y_v12_hastnae_20 + y_v12_hastnae_21
                        + y_v12_hastnae_22 + y_v12_hastnae_23 + y_v12_hastnae_24
                        + y_v12_hastnae_25 + y_v12_hastnae_26 + y_v12_hastnae_27
                        + y_v12_hastnae_28 + y_v12_hastnae_29 + y_v12_hastnae_30
                        + y_v12_hastnae_31 + y_v12_hastnae_32 + y_v12_hastnae_33
                        + y_v12_hastnae_34 + y_v12_hastnae_35 + y_v12_hastnae_36
                        + y_v12_hastnae_37 + y_v12_hastnae_38 + y_v12_hastnae_39
                        - x_v12_R = 0
 assign_eq_v13_hastnae: y_v13_hastnae_0 + y_v13_hastnae_1 + y_v13_hastnae_2
                        + y_v13_hastnae_3 + y_v13_hastnae_4 + y_v13_hastnae_5
                        + y_v13_hastnae_6 + y_v13_hastnae_7 + y_v13_hastnae_8
                        + y_v13_hastnae_9 + y_v13_hastnae_10 + y_v13_hastnae_11
                        + y_v13_hastnae_12 + y_v13_hastnae_13 + y_v13_hastnae_14
                        + y_v13_hastnae_15 + y_v13_hastnae_16 + y_v13_hastnae_17
                        + y_v13_hastnae_18 + y_v13_hastnae_19 + y_v13_hastnae_20
                        + y_v13_hastnae_21 + y_v13_hastnae_22 + y_v13_hastnae_23
                        + y_v13_hastnae_24 + y_v13_hastnae_25 + y_v13_hastnae_26
                        + y_v13_hastnae_27 + y_v13_hastnae_28 + y_v13_hastnae_29
                        + y_v13_hastnae_30 + y_v13_hastnae_31 + y_v13_hastnae_32
                        + y_v13_hastnae_33 + y_v13_hastnae_34 + y_v13_hastnae_35
                        + y_v13_hastnae_36 + y_v13_hastnae_37 + y_v13_hastnae_38
                        + y_v13_hastnae_39 - x_v13_R = 0
 assign_eq_v14_hastnae: y_v14_hastnae_0 + y_v14_hastnae_1 + y_v14_hastnae_3
                        + y_v14_hastnae_4 + y_v14_hastnae_5 + y_v14_hastnae_6
                        + y_v14_hastnae_7 + y_v14_hastnae_8 + y_v14_hastnae_9
                        + y_v14_hastnae_10 + y_v14_hastnae_11 + y_v14_hastnae_12
                        + y_v14_hastnae_13 + y_v14_hastnae_14 + y_v14_hastnae_15
                        + y_v14_hastnae_16 + y_v14_hastnae_17 + y_v14_hastnae_18
                        + y_v14_hastnae_19 + y_v14_hastnae_20 + y_v14_hastnae_21
                        + y_v14_hastnae_22 + y_v14_hastnae_23 + y_v14_hastnae_24
                        + y_v14_hastnae_25 + y_v14_hastnae_26 + y_v14_hastnae_27
                        + y_v14_hastnae_28 + y_v14_hastnae_29 + y_v14_hastnae_30
                        + y_v14_hastnae_31 + y_v14_hastnae_32 + y_v14_hastnae_33
                        + y_v14_hastnae_34 + y_v14_hastnae_35 + y_v14_hastnae_36
                        + y_v14_hastnae_37 + y_v14_hastnae_38 + y_v14_hastnae_39
                        - x_v14_R = 0
 assign_eq_v15_hastnae: y_v15_hastnae_0 + y_v15_hastnae_1 + y_v15_hastnae_3
                        + y_v15_hastnae_4 + y_v15_hastnae_5 + y_v15_hastnae_6
                        + y_v15_hastnae_12 + y_v15_hastnae_13 + y_v15_hastnae_14
                        + y_v15_hastnae_15 + y_v15_hastnae_16 + y_v15_hastnae_17
                        + y_v15_hastnae_18 + y_v15_hastnae_19 + y_v15_hastnae_20
                        + y_v15_hastnae_21 + y_v15_hastnae_22 + y_v15_hastnae_23
                        + y_v15_hastnae_24 + y_v15_hastnae_25 + y_v15_hastnae_26
                        + y_v15_hastnae_27 + y_v15_hastnae_28 + y_v15_hastnae_29
                        + y_v15_hastnae_31 + y_v15_hastnae_32 + y_v15_hastnae_33
                        + y_v15_hastnae_34 + y_v15_hastnae_35 + y_v15_hastnae_37
                        + y_v15_hastnae_39 - x_v15_R = 0
 assign_eq_v16_hastnae: y_v16_hastnae_0 + y_v16_hastnae_1 + y_v16_hastnae_2
                        + y_v16_hastnae_3 + y_v16_hastnae_4 + y_v16_hastnae_5
                        + y_v16_hastnae_7 + y_v16_hastnae_8 + y_v16_hastnae_9
                        + y_v16_hastnae_10 + y_v16_hastnae_11 + y_v16_hastnae_12
                        + y_v16_hastnae_17 + y_v16_hastnae_18 + y_v16_hastnae_19
                        + y_v16_hastnae_21 + y_v16_hastnae_22 + y_v16_hastnae_27
                        + y_v16_hastnae_29 + y_v16_hastnae_30 + y_v16_hastnae_31
                        + y_v16_hastnae_32 + y_v16_hastnae_33 + y_v16_hastnae_34
                        + y_v16_hastnae_35 + y_v16_hastnae_36 + y_v16_hastnae_37
                        + y_v16_hastnae_38 + y_v16_hastnae_39 - x_v16_R = 0
 assign_eq_v17_hastnae: y_v17_hastnae_0 + y_v17_hastnae_1 + y_v17_hastnae_2
                        + y_v17_hastnae_3 + y_v17_hastnae_4 + y_v17_hastnae_5
                        + y_v17_hastnae_6 + y_v17_hastnae_7 + y_v17_hastnae_8
                        + y_v17_hastnae_9 + y_v17_hastnae_10 + y_v17_hastnae_11
                        + y_v17_hastnae_12 + y_v17_hastnae_15 + y_v17_hastnae_16
                        + y_v17_hastnae_17 + y_v17_hastnae_18 + y_v17_hastnae_19
                        + y_v17_hastnae_20 + y_v17_hastnae_21 + y_v17_hastnae_22
                        + y_v17_hastnae_24 + y_v17_hastnae_25 + y_v17_hastnae_26
                        + y_v17_hastnae_27 + y_v17_hastnae_28 + y_v17_hastnae_29
                        + y_v17_hastnae_30 + y_v17_hastnae_31 + y_v17_hastnae_32
                        + y_v17_hastnae_33 + y_v17_hastnae_34 + y_v17_hastnae_35
                        + y_v17_hastnae_36 + y_v17_hastnae_37 + y_v17_hastnae_38
                        + y_v17_hastnae_39 - x_v17_R = 0
 assign_eq_v18_hastnae: y_v18_hastnae_0 + y_v18_hastnae_1 + y_v18_hastnae_3
                        + y_v18_hastnae_4 + y_v18_hastnae_5 + y_v18_hastnae_6
                        + y_v18_hastnae_7 + y_v18_hastnae_9 + y_v18_hastnae_10
                        + y_v18_hastnae_11 + y_v18_hastnae_12 + y_v18_hastnae_13
                        + y_v18_hastnae_14 + y_v18_hastnae_15 + y_v18_hastnae_16
                        + y_v18_hastnae_17 + y_v18_hastnae_18 + y_v18_hastnae_19
                        + y_v18_hastnae_20 + y_v18_hastnae_21 + y_v18_hastnae_22
                        + y_v18_hastnae_24 + y_v18_hastnae_25 + y_v18_hastnae_26
                        + y_v18_hastnae_27 + y_v18_hastnae_28 + y_v18_hastnae_29
                        + y_v18_hastnae_30 + y_v18_hastnae_31 + y_v18_hastnae_32
                        + y_v18_hastnae_33 + y_v18_hastnae_34 + y_v18_hastnae_35
                        + y_v18_hastnae_36 + y_v18_hastnae_37 + y_v18_hastnae_38
                        + y_v18_hastnae_39 - x_v18_R = 0
 assign_eq_v19_hastnae: y_v19_hastnae_0 + y_v19_hastnae_1 + y_v19_hastnae_3
                        + y_v19_hastnae_4 + y_v19_hastnae_5 + y_v19_hastnae_6
                        + y_v19_hastnae_7 + y_v19_hastnae_9 + y_v19_hastnae_10
                        + y_v19_hastnae_11 + y_v19_hastnae_12 + y_v19_hastnae_13
                        + y_v19_hastnae_14 + y_v19_hastnae_15 + y_v19_hastnae_17
                        + y_v19_hastnae_18 + y_v19_hastnae_19 + y_v19_hastnae_20
                        + y_v19_hastnae_21 + y_v19_hastnae_22 + y_v19_hastnae_23
                        + y_v19_hastnae_24 + y_v19_hastnae_25 + y_v19_hastnae_26
                        + y_v19_hastnae_27 + y_v19_hastnae_28 + y_v19_hastnae_29
                        + y_v19_hastnae_30 + y_v19_hastnae_31 + y_v19_hastnae_32
                        + y_v19_hastnae_33 + y_v19_hastnae_34 + y_v19_hastnae_35
                        + y_v19_hastnae_36 + y_v19_hastnae_37 + y_v19_hastnae_38
                        + y_v19_hastnae_39 - x_v19_R = 0
 assign_eq_v20_hastnae: y_v20_hastnae_0 + y_v20_hastnae_1 + y_v20_hastnae_3
                        + y_v20_hastnae_4 + y_v20_hastnae_5 + y_v20_hastnae_6
                        + y_v20_hastnae_10 + y_v20_hastnae_12 + y_v20_hastnae_14
                        + y_v20_hastnae_15 + y_v20_hastnae_17 + y_v20_hastnae_18
                        + y_v20_hastnae_19 + y_v20_hastnae_20 + y_v20_hastnae_21
                        + y_v20_hastnae_22 + y_v20_hastnae_23 + y_v20_hastnae_24
                        + y_v20_hastnae_25 + y_v20_hastnae_26 + y_v20_hastnae_27
                        + y_v20_hastnae_28 + y_v20_hastnae_29 + y_v20_hastnae_31
                        + y_v20_hastnae_32 + y_v20_hastnae_33 + y_v20_hastnae_34
                        + y_v20_hastnae_35 + y_v20_hastnae_36 + y_v20_hastnae_37
                        + y_v20_hastnae_39 - x_v20_R = 0
 assign_eq_v21_hastnae: y_v21_hastnae_1 + y_v21_hastnae_2 + y_v21_hastnae_3
                        + y_v21_hastnae_4 + y_v21_hastnae_5 + y_v21_hastnae_7
                        + y_v21_hastnae_9 + y_v21_hastnae_10 + y_v21_hastnae_11
                        + y_v21_hastnae_12 + y_v21_hastnae_17 + y_v21_hastnae_18
                        + y_v21_hastnae_19 + y_v21_hastnae_21 + y_v21_hastnae_22
                        + y_v21_hastnae_27 + y_v21_hastnae_30 + y_v21_hastnae_31
                        + y_v21_hastnae_32 + y_v21_hastnae_33 + y_v21_hastnae_36
                        + y_v21_hastnae_39 - x_v21_R = 0
 assign_eq_v22_hastnae: y_v22_hastnae_0 + y_v22_hastnae_1 + y_v22_hastnae_3
                        + y_v22_hastnae_4 + y_v22_hastnae_5 + y_v22_hastnae_7
                        + y_v22_hastnae_9 + y_v22_hastnae_10 + y_v22_hastnae_11
                        + y_v22_hastnae_12 + y_v22_hastnae_17 + y_v22_hastnae_18
                        + y_v22_hastnae_19 + y_v22_hastnae_21 + y_v22_hastnae_22
                        + y_v22_hastnae_24 + y_v22_hastnae_27 + y_v22_hastnae_28
                        + y_v22_hastnae_29 + y_v22_hastnae_30 + y_v22_hastnae_31
                        + y_v22_hastnae_32 + y_v22_hastnae_33 + y_v22_hastnae_34
                        + y_v22_hastnae_35 + y_v22_hastnae_36 + y_v22_hastnae_37
                        + y_v22_hastnae_38 + y_v22_hastnae_39 - x_v22_R = 0
 assign_eq_v23_hastnae: y_v23_hastnae_0 + y_v23_hastnae_1 + y_v23_hastnae_3
                        + y_v23_hastnae_4 + y_v23_hastnae_5 + y_v23_hastnae_7
                        + y_v23_hastnae_9 + y_v23_hastnae_10 + y_v23_hastnae_12
                        + y_v23_hastnae_17 + y_v23_hastnae_18 + y_v23_hastnae_19
                        + y_v23_hastnae_21 + y_v23_hastnae_22 + y_v23_hastnae_24
                        + y_v23_hastnae_27 + y_v23_hastnae_28 + y_v23_hastnae_31
                        + y_v23_hastnae_32 + y_v23_hastnae_33 + y_v23_hastnae_34
                        + y_v23_hastnae_35 + y_v23_hastnae_36 + y_v23_hastnae_37
                        + y_v23_hastnae_39 - x_v23_R = 0
 assign_eq_v24_hastnae: y_v24_hastnae_0 + y_v24_hastnae_1 + y_v24_hastnae_3
                        + y_v24_hastnae_4 + y_v24_hastnae_5 + y_v24_hastnae_7
                        + y_v24_hastnae_9 + y_v24_hastnae_10 + y_v24_hastnae_12
                        + y_v24_hastnae_15 + y_v24_hastnae_17 + y_v24_hastnae_18
                        + y_v24_hastnae_19 + y_v24_hastnae_20 + y_v24_hastnae_21
                        + y_v24_hastnae_22 + y_v24_hastnae_24 + y_v24_hastnae_25
                        + y_v24_hastnae_26 + y_v24_hastnae_27 + y_v24_hastnae_28
                        + y_v24_hastnae_31 + y_v24_hastnae_32 + y_v24_hastnae_33
                        + y_v24_hastnae_34 + y_v24_hastnae_35 + y_v24_hastnae_36
                        + y_v24_hastnae_37 + y_v24_hastnae_39 - x_v24_R = 0
 assign_eq_v25_hastnae: y_v25_hastnae_0 + y_v25_hastnae_1 + y_v25_hastnae_3
                        + y_v25_hastnae_4 + y_v25_hastnae_5 + y_v25_hastnae_10
                        + y_v25_hastnae_12 + y_v25_hastnae_14 + y_v25_hastnae_15
                        + y_v25_hastnae_17 + y_v25_hastnae_18 + y_v25_hastnae_20
                        + y_v25_hastnae_21 + y_v25_hastnae_22 + y_v25_hastnae_24
                        + y_v25_hastnae_27 + y_v25_hastnae_28 + y_v25_hastnae_31
                        + y_v25_hastnae_33 + y_v25_hastnae_34 + y_v25_hastnae_35
                        + y_v25_hastnae_36 + y_v25_hastnae_37 + y_v25_hastnae_39
                        - x_v25_R = 0
 assign_eq_v1_hastnae: y_v1_hastnae_2 + y_v1_hastnae_3 + y_v1_hastnae_4
                       + y_v1_hastnae_6 + y_v1_hastnae_7 + y_v1_hastnae_8
                       + y_v1_hastnae_9 + y_v1_hastnae_11 + y_v1_hastnae_13
                       + y_v1_hastnae_15 + y_v1_hastnae_16 + y_v1_hastnae_19
                       + y_v1_hastnae_21 + y_v1_hastnae_23 + y_v1_hastnae_25
                       + y_v1_hastnae_26 + y_v1_hastnae_29 + y_v1_hastnae_30
                       + y_v1_hastnae_32 + y_v1_hastnae_34 + y_v1_hastnae_37
                       + y_v1_hastnae_38 - x_v1_R = 0
 assign_eq_v2_hastnae: y_v2_hastnae_0 + y_v2_hastnae_2 + y_v2_hastnae_3
                       + y_v2_hastnae_4 + y_v2_hastnae_6 + y_v2_hastnae_8
                       + y_v2_hastnae_9 + y_v2_hastnae_11 + y_v2_hastnae_13
                       + y_v2_hastnae_14 + y_v2_hastnae_15 + y_v2_hastnae_16
                       + y_v2_hastnae_17 + y_v2_hastnae_18 + y_v2_hastnae_19
                       + y_v2_hastnae_20 + y_v2_hastnae_21 + y_v2_hastnae_23
                       + y_v2_hastnae_25 + y_v2_hastnae_26 + y_v2_hastnae_27
                       + y_v2_hastnae_29 + y_v2_hastnae_30 + y_v2_hastnae_31
                       + y_v2_hastnae_32 + y_v2_hastnae_34 + y_v2_hastnae_35
                       + y_v2_hastnae_37 + y_v2_hastnae_38 - x_v2_R = 0
 assign_eq_v3_hastnae: y_v3_hastnae_0 + y_v3_hastnae_2 + y_v3_hastnae_4
                       + y_v3_hastnae_6 + y_v3_hastnae_8 + y_v3_hastnae_11
                       + y_v3_hastnae_12 + y_v3_hastnae_13 + y_v3_hastnae_14
                       + y_v3_hastnae_15 + y_v3_hastnae_16 + y_v3_hastnae_17
                       + y_v3_hastnae_18 + y_v3_hastnae_19 + y_v3_hastnae_20
                       + y_v3_hastnae_21 + y_v3_hastnae_22 + y_v3_hastnae_23
                       + y_v3_hastnae_24 + y_v3_hastnae_25 + y_v3_hastnae_26
                       + y_v3_hastnae_29 + y_v3_hastnae_30 + y_v3_hastnae_31
                       + y_v3_hastnae_32 + y_v3_hastnae_34 + y_v3_hastnae_35
                       + y_v3_hastnae_37 + y_v3_hastnae_38 - x_v3_R = 0
 assign_eq_v4_hastnae: y_v4_hastnae_0 + y_v4_hastnae_2 + y_v4_hastnae_4
                       + y_v4_hastnae_5 + y_v4_hastnae_6 + y_v4_hastnae_8
                       + y_v4_hastnae_11 + y_v4_hastnae_13 + y_v4_hastnae_14
                       + y_v4_hastnae_15 + y_v4_hastnae_16 + y_v4_hastnae_18
                       + y_v4_hastnae_19 + y_v4_hastnae_20 + y_v4_hastnae_21
                       + y_v4_hastnae_22 + y_v4_hastnae_23 + y_v4_hastnae_24
                       + y_v4_hastnae_25 + y_v4_hastnae_26 + y_v4_hastnae_29
                       + y_v4_hastnae_30 + y_v4_hastnae_31 + y_v4_hastnae_32
                       + y_v4_hastnae_33 + y_v4_hastnae_34 + y_v4_hastnae_35
                       + y_v4_hastnae_37 + y_v4_hastnae_38 - x_v4_R = 0
 assign_eq_v5_hastnae: y_v5_hastnae_0 + y_v5_hastnae_5 + y_v5_hastnae_6
                       + y_v5_hastnae_8 + y_v5_hastnae_13 + y_v5_hastnae_14
                       + y_v5_hastnae_15 + y_v5_hastnae_16 + y_v5_hastnae_18
                       + y_v5_hastnae_19 + y_v5_hastnae_20 + y_v5_hastnae_21
                       + y_v5_hastnae_23 + y_v5_hastnae_24 + y_v5_hastnae_25
                       + y_v5_hastnae_26 + y_v5_hastnae_28 + y_v5_hastnae_29
                       + y_v5_hastnae_30 + y_v5_hastnae_31 + y_v5_hastnae_34
                       + y_v5_hastnae_35 + y_v5_hastnae_37 + y_v5_hastnae_38
                       - x_v5_R = 0
 assign_eq_v6_hastnae: y_v6_hastnae_2 + y_v6_hastnae_3 + y_v6_hastnae_4
                       + y_v6_hastnae_6 + y_v6_hastnae_7 + y_v6_hastnae_8
                       + y_v6_hastnae_9 + y_v6_hastnae_11 + y_v6_hastnae_13
                       + y_v6_hastnae_15 + y_v6_hastnae_16 + y_v6_hastnae_17
                       + y_v6_hastnae_18 + y_v6_hastnae_19 + y_v6_hastnae_21
                       + y_v6_hastnae_23 + y_v6_hastnae_25 + y_v6_hastnae_26
                       + y_v6_hastnae_27 + y_v6_hastnae_29 + y_v6_hastnae_30
                       + y_v6_hastnae_32 + y_v6_hastnae_34 + y_v6_hastnae_35
                       + y_v6_hastnae_36 + y_v6_hastnae_37 + y_v6_hastnae_38
                       - x_v6_R = 0
 assign_eq_v7_hastnae: y_v7_hastnae_0 + y_v7_hastnae_2 + y_v7_hastnae_3
                       + y_v7_hastnae_4 + y_v7_hastnae_5 + y_v7_hastnae_6
                       + y_v7_hastnae_7 + y_v7_hastnae_8 + y_v7_hastnae_9
                       + y_v7_hastnae_10 + y_v7_hastnae_11 + y_v7_hastnae_12
                       + y_v7_hastnae_13 + y_v7_hastnae_14 + y_v7_hastnae_15
                       + y_v7_hastnae_16 + y_v7_hastnae_17 + y_v7_hastnae_18
                       + y_v7_hastnae_19 + y_v7_hastnae_20 + y_v7_hastnae_21
                       + y_v7_hastnae_22 + y_v7_hastnae_23 + y_v7_hastnae_25
                       + y_v7_hastnae_26 + y_v7_hastnae_27 + y_v7_hastnae_29
                       + y_v7_hastnae_30 + y_v7_hastnae_31 + y_v7_hastnae_32
                       + y_v7_hastnae_33 + y_v7_hastnae_34 + y_v7_hastnae_35
                       + y_v7_hastnae_36 + y_v7_hastnae_37 + y_v7_hastnae_38
                       - x_v7_R = 0
 assign_eq_v8_hastnae: y_v8_hastnae_0 + y_v8_hastnae_2 + y_v8_hastnae_3
                       + y_v8_hastnae_4 + y_v8_hastnae_5 + y_v8_hastnae_6
                       + y_v8_hastnae_8 + y_v8_hastnae_9 + y_v8_hastnae_11
                       + y_v8_hastnae_12 + y_v8_hastnae_13 + y_v8_hastnae_14
                       + y_v8_hastnae_15 + y_v8_hastnae_16 + y_v8_hastnae_17
                       + y_v8_hastnae_18 + y_v8_hastnae_19 + y_v8_hastnae_20
                       + y_v8_hastnae_21 + y_v8_hastnae_22 + y_v8_hastnae_23
                       + y_v8_hastnae_24 + y_v8_hastnae_25 + y_v8_hastnae_26
                       + y_v8_hastnae_27 + y_v8_hastnae_28 + y_v8_hastnae_29
                       + y_v8_hastnae_30 + y_v8_hastnae_31 + y_v8_hastnae_32
                       + y_v8_hastnae_33 + y_v8_hastnae_34 + y_v8_hastnae_35
                       + y_v8_hastnae_37 + y_v8_hastnae_38 - x_v8_R = 0
 assign_eq_v9_hastnae: y_v9_hastnae_0 + y_v9_hastnae_1 + y_v9_hastnae_2
                       + y_v9_hastnae_3 + y_v9_hastnae_4 + y_v9_hastnae_5
                       + y_v9_hastnae_6 + y_v9_hastnae_8 + y_v9_hastnae_11
                       + y_v9_hastnae_12 + y_v9_hastnae_13 + y_v9_hastnae_14
                       + y_v9_hastnae_15 + y_v9_hastnae_16 + y_v9_hastnae_17
                       + y_v9_hastnae_18 + y_v9_hastnae_19 + y_v9_hastnae_20
                       + y_v9_hastnae_21 + y_v9_hastnae_22 + y_v9_hastnae_23
                       + y_v9_hastnae_24 + y_v9_hastnae_25 + y_v9_hastnae_26
                       + y_v9_hastnae_27 + y_v9_hastnae_28 + y_v9_hastnae_29
                       + y_v9_hastnae_30 + y_v9_hastnae_31 + y_v9_hastnae_32
                       + y_v9_hastnae_33 + y_v9_hastnae_34 + y_v9_hastnae_35
                       + y_v9_hastnae_37 + y_v9_hastnae_38 + y_v9_hastnae_39
                       - x_v9_R = 0
 assign_eq_v10_hastnae: y_v10_hastnae_0 + y_v10_hastnae_5 + y_v10_hastnae_6
                        + y_v10_hastnae_8 + y_v10_hastnae_12 + y_v10_hastnae_13
                        + y_v10_hastnae_14 + y_v10_hastnae_15 + y_v10_hastnae_16
                        + y_v10_hastnae_17 + y_v10_hastnae_18 + y_v10_hastnae_19
                        + y_v10_hastnae_20 + y_v10_hastnae_21 + y_v10_hastnae_22
                        + y_v10_hastnae_23 + y_v10_hastnae_24 + y_v10_hastnae_25
                        + y_v10_hastnae_26 + y_v10_hastnae_28 + y_v10_hastnae_29
                        + y_v10_hastnae_30 + y_v10_hastnae_31 + y_v10_hastnae_33
                        + y_v10_hastnae_34 + y_v10_hastnae_35 + y_v10_hastnae_37
                        + y_v10_hastnae_38 + y_v10_hastnae_39 - x_v10_R = 0
 assign_eq_v11_hastnae: y_v11_hastnae_0 + y_v11_hastnae_2 + y_v11_hastnae_3
                        + y_v11_hastnae_4 + y_v11_hastnae_5 + y_v11_hastnae_6
                        + y_v11_hastnae_7 + y_v11_hastnae_8 + y_v11_hastnae_9
                        + y_v11_hastnae_10 + y_v11_hastnae_11 + y_v11_hastnae_12
                        + y_v11_hastnae_16 + y_v11_hastnae_17 + y_v11_hastnae_18
                        + y_v11_hastnae_19 + y_v11_hastnae_21 + y_v11_hastnae_22
                        + y_v11_hastnae_25 + y_v11_hastnae_27 + y_v11_hastnae_29
                        + y_v11_hastnae_30 + y_v11_hastnae_31 + y_v11_hastnae_32
                        + y_v11_hastnae_33 + y_v11_hastnae_34 + y_v11_hastnae_35
                        + y_v11_hastnae_36 + y_v11_hastnae_37 + y_v11_hastnae_38
                        - x_v11_R = 0
 group_size_hastnae_0_v15: u_hastnae_0 - x_v15_hastnae <= 0
 group_size_hastnae_0_v14: u_hastnae_0 - x_v14_hastnae <= 0
 group_size_hastnae_1_v23: u_hastnae_1 - x_v23_hastnae <= 0
 group_size_hastnae_1_v24: u_hastnae_1 - x_v24_hastnae <= 0
 group_size_hastnae_2_v1: u_hastnae_2 - x_v1_hastnae <= 0
 group_size_hastnae_2_v6: u_hastnae_2 - x_v6_hastnae <= 0
 group_size_hastnae_3_v17: u_hastnae_3 - x_v17_hastnae <= 0
 group_size_hastnae_3_v16: u_hastnae_3 - x_v16_hastnae <= 0
 group_size_hastnae_4_v12: u_hastnae_4 - x_v12_hastnae <= 0
 group_size_hastnae_4_v17: u_hastnae_4 - x_v17_hastnae <= 0
 group_size_hastnae_5_v20: u_hastnae_5 - x_v20_hastnae <= 0
 group_size_hastnae_5_v19: u_hastnae_5 - x_v19_hastnae <= 0
 group_size_hastnae_6_v8: u_hastnae_6 - x_v8_hastnae <= 0
 group_size_hastnae_6_v3: u_hastnae_6 - x_v3_hastnae <= 0
 group_size_hastnae_7_v16: u_hastnae_7 - x_v16_hastnae <= 0
 group_size_hastnae_7_v21: u_hastnae_7 - x_v21_hastnae <= 0
 group_size_hastnae_8_v1: u_hastnae_8 - x_v1_hastnae <= 0
 group_size_hastnae_8_v2: u_hastnae_8 - x_v2_hastnae <= 0
 group_size_hastnae_9_v16: u_hastnae_9 - x_v16_hastnae <= 0
 group_size_hastnae_9_v11: u_hastnae_9 - x_v11_hastnae <= 0
 group_size_hastnae_10_v23: u_hastnae_10 - x_v23_hastnae <= 0
 group_size_hastnae_10_v22: u_hastnae_10 - x_v22_hastnae <= 0
 group_size_hastnae_11_v11: u_hastnae_11 - x_v11_hastnae <= 0
 group_size_hastnae_11_v6: u_hastnae_11 - x_v6_hastnae <= 0
 group_size_hastnae_12_v23: u_hastnae_12 - x_v23_hastnae <= 0
 group_size_hastnae_12_v18: u_hastnae_12 - x_v18_hastnae <= 0
 group_size_hastnae_13_v3: u_hastnae_13 - x_v3_hastnae <= 0
 group_size_hastnae_13_v4: u_hastnae_13 - x_v4_hastnae <= 0
 group_size_hastnae_14_v5: u_hastnae_14 - x_v5_hastnae <= 0
 group_size_hastnae_14_v10: u_hastnae_14 - x_v10_hastnae <= 0
 group_size_hastnae_15_v10: u_hastnae_15 - x_v10_hastnae <= 0
 group_size_hastnae_15_v9: u_hastnae_15 - x_v9_hastnae <= 0
 group_size_hastnae_16_v3: u_hastnae_16 - x_v3_hastnae <= 0
 group_size_hastnae_16_v2: u_hastnae_16 - x_v2_hastnae <= 0
 group_size_hastnae_17_v17: u_hastnae_17 - x_v17_hastnae <= 0
 group_size_hastnae_17_v18: u_hastnae_17 - x_v18_hastnae <= 0
 group_size_hastnae_18_v18: u_hastnae_18 - x_v18_hastnae <= 0
 group_size_hastnae_18_v13: u_hastnae_18 - x_v13_hastnae <= 0
 group_size_hastnae_19_v12: u_hastnae_19 - x_v12_hastnae <= 0
 group_size_hastnae_19_v7: u_hastnae_19 - x_v7_hastnae <= 0
 group_size_hastnae_20_v15: u_hastnae_20 - x_v15_hastnae <= 0
 group_size_hastnae_20_v10: u_hastnae_20 - x_v10_hastnae <= 0
 group_size_hastnae_21_v12: u_hastnae_21 - x_v12_hastnae <= 0
 group_size_hastnae_21_v13: u_hastnae_21 - x_v13_hastnae <= 0
 group_size_hastnae_22_v18: u_hastnae_22 - x_v18_hastnae <= 0
 group_size_hastnae_22_v19: u_hastnae_22 - x_v19_hastnae <= 0
 group_size_hastnae_23_v5: u_hastnae_23 - x_v5_hastnae <= 0
 group_size_hastnae_23_v4: u_hastnae_23 - x_v4_hastnae <= 0
 group_size_hastnae_24_v15: u_hastnae_24 - x_v15_hastnae <= 0
 group_size_hastnae_24_v20: u_hastnae_24 - x_v20_hastnae <= 0
 group_size_hastnae_25_v8: u_hastnae_25 - x_v8_hastnae <= 0
 group_size_hastnae_25_v9: u_hastnae_25 - x_v9_hastnae <= 0
 group_size_hastnae_26_v4: u_hastnae_26 - x_v4_hastnae <= 0
 group_size_hastnae_26_v9: u_hastnae_26 - x_v9_hastnae <= 0
 group_size_hastnae_27_v17: u_hastnae_27 - x_v17_hastnae <= 0
 group_size_hastnae_27_v22: u_hastnae_27 - x_v22_hastnae <= 0
 group_size_hastnae_28_v25: u_hastnae_28 - x_v25_hastnae <= 0
 group_size_hastnae_28_v20: u_hastnae_28 - x_v20_hastnae <= 0
 group_size_hastnae_29_v7: u_hastnae_29 - x_v7_hastnae <= 0
 group_size_hastnae_29_v8: u_hastnae_29 - x_v8_hastnae <= 0
 group_size_hastnae_30_v7: u_hastnae_30 - x_v7_hastnae <= 0
 group_size_hastnae_30_v6: u_hastnae_30 - x_v6_hastnae <= 0
 group_size_hastnae_31_v14: u_hastnae_31 - x_v14_hastnae <= 0
 group_size_hastnae_31_v19: u_hastnae_31 - x_v19_hastnae <= 0
 group_size_hastnae_32_v12: u_hastnae_32 - x_v12_hastnae <= 0
 group_size_hastnae_32_v11: u_hastnae_32 - x_v11_hastnae <= 0
 group_size_hastnae_33_v24: u_hastnae_33 - x_v24_hastnae <= 0
 group_size_hastnae_33_v19: u_hastnae_33 - x_v19_hastnae <= 0
 group_size_hastnae_34_v8: u_hastnae_34 - x_v8_hastnae <= 0
 group_size_hastnae_34_v13: u_hastnae_34 - x_v13_hastnae <= 0
 group_size_hastnae_35_v14: u_hastnae_35 - x_v14_hastnae <= 0
 group_size_hastnae_35_v13: u_hastnae_35 - x_v13_hastnae <= 0
 group_size_hastnae_36_v22: u_hastnae_36 - x_v22_hastnae <= 0
 group_size_hastnae_36_v21: u_hastnae_36 - x_v21_hastnae <= 0
 group_size_hastnae_37_v14: u_hastnae_37 - x_v14_hastnae <= 0
 group_size_hastnae_37_v9: u_hastnae_37 - x_v9_hastnae <= 0
 group_size_hastnae_38_v7: u_hastnae_38 - x_v7_hastnae <= 0
 group_size_hastnae_38_v2: u_hastnae_38 - x_v2_hastnae <= 0
 group_size_hastnae_39_v25: u_hastnae_39 - x_v25_hastnae <= 0
 group_size_hastnae_39_v24: u_hastnae_39 - x_v24_hastnae <= 0
 x_le_sum_u_v12_hastnae: x_v12_hastnae - u_hastnae_4 - u_hastnae_19
                         - u_hastnae_21 - u_hastnae_32 <= 0
 sum_u_le_1_v12_hastnae: u_hastnae_4 + u_hastnae_19 + u_hastnae_21
                         + u_hastnae_32 <= 1
 x_le_sum_u_v13_hastnae: x_v13_hastnae - u_hastnae_18 - u_hastnae_21
                         - u_hastnae_34 - u_hastnae_35 <= 0
 sum_u_le_1_v13_hastnae: u_hastnae_18 + u_hastnae_21 + u_hastnae_34
                         + u_hastnae_35 <= 1
 x_le_sum_u_v14_hastnae: x_v14_hastnae - u_hastnae_0 - u_hastnae_31
                         - u_hastnae_35 - u_hastnae_37 <= 0
 sum_u_le_1_v14_hastnae: u_hastnae_0 + u_hastnae_31 + u_hastnae_35
                         + u_hastnae_37 <= 1
 x_le_sum_u_v15_hastnae: x_v15_hastnae - u_hastnae_0 - u_hastnae_20
                         - u_hastnae_24 <= 0
 sum_u_le_1_v15_hastnae: u_hastnae_0 + u_hastnae_20 + u_hastnae_24 <= 1
 x_le_sum_u_v16_hastnae: x_v16_hastnae - u_hastnae_3 - u_hastnae_7 - u_hastnae_9
                          <= 0
 sum_u_le_1_v16_hastnae: u_hastnae_3 + u_hastnae_7 + u_hastnae_9 <= 1
 x_le_sum_u_v17_hastnae: x_v17_hastnae - u_hastnae_3 - u_hastnae_4
                         - u_hastnae_17 - u_hastnae_27 <= 0
 sum_u_le_1_v17_hastnae: u_hastnae_3 + u_hastnae_4 + u_hastnae_17 + u_hastnae_27
                          <= 1
 x_le_sum_u_v18_hastnae: x_v18_hastnae - u_hastnae_12 - u_hastnae_17
                         - u_hastnae_18 - u_hastnae_22 <= 0
 sum_u_le_1_v18_hastnae: u_hastnae_12 + u_hastnae_17 + u_hastnae_18
                         + u_hastnae_22 <= 1
 x_le_sum_u_v19_hastnae: x_v19_hastnae - u_hastnae_5 - u_hastnae_22
                         - u_hastnae_31 - u_hastnae_33 <= 0
 sum_u_le_1_v19_hastnae: u_hastnae_5 + u_hastnae_22 + u_hastnae_31
                         + u_hastnae_33 <= 1
 x_le_sum_u_v20_hastnae: x_v20_hastnae - u_hastnae_5 - u_hastnae_24
                         - u_hastnae_28 <= 0
 sum_u_le_1_v20_hastnae: u_hastnae_5 + u_hastnae_24 + u_hastnae_28 <= 1
 x_le_sum_u_v21_hastnae: x_v21_hastnae - u_hastnae_7 - u_hastnae_36 <= 0
 sum_u_le_1_v21_hastnae: u_hastnae_7 + u_hastnae_36 <= 1
 x_le_sum_u_v22_hastnae: x_v22_hastnae - u_hastnae_10 - u_hastnae_27
                         - u_hastnae_36 <= 0
 sum_u_le_1_v22_hastnae: u_hastnae_10 + u_hastnae_27 + u_hastnae_36 <= 1
 x_le_sum_u_v23_hastnae: x_v23_hastnae - u_hastnae_1 - u_hastnae_10
                         - u_hastnae_12 <= 0
 sum_u_le_1_v23_hastnae: u_hastnae_1 + u_hastnae_10 + u_hastnae_12 <= 1
 x_le_sum_u_v24_hastnae: x_v24_hastnae - u_hastnae_1 - u_hastnae_33
                         - u_hastnae_39 <= 0
 sum_u_le_1_v24_hastnae: u_hastnae_1 + u_hastnae_33 + u_hastnae_39 <= 1
 x_le_sum_u_v25_hastnae: x_v25_hastnae - u_hastnae_28 - u_hastnae_39 <= 0
 sum_u_le_1_v25_hastnae: u_hastnae_28 + u_hastnae_39 <= 1
 x_le_sum_u_v1_hastnae: x_v1_hastnae - u_hastnae_2 - u_hastnae_8 <= 0
 sum_u_le_1_v1_hastnae: u_hastnae_2 + u_hastnae_8 <= 1
 x_le_sum_u_v2_hastnae: x_v2_hastnae - u_hastnae_8 - u_hastnae_16 - u_hastnae_38
                         <= 0
 sum_u_le_1_v2_hastnae: u_hastnae_8 + u_hastnae_16 + u_hastnae_38 <= 1
 x_le_sum_u_v3_hastnae: x_v3_hastnae - u_hastnae_6 - u_hastnae_13 - u_hastnae_16
                         <= 0
 sum_u_le_1_v3_hastnae: u_hastnae_6 + u_hastnae_13 + u_hastnae_16 <= 1
 x_le_sum_u_v4_hastnae: x_v4_hastnae - u_hastnae_13 - u_hastnae_23
                        - u_hastnae_26 <= 0
 sum_u_le_1_v4_hastnae: u_hastnae_13 + u_hastnae_23 + u_hastnae_26 <= 1
 x_le_sum_u_v5_hastnae: x_v5_hastnae - u_hastnae_14 - u_hastnae_23 <= 0
 sum_u_le_1_v5_hastnae: u_hastnae_14 + u_hastnae_23 <= 1
 x_le_sum_u_v6_hastnae: x_v6_hastnae - u_hastnae_2 - u_hastnae_11 - u_hastnae_30
                         <= 0
 sum_u_le_1_v6_hastnae: u_hastnae_2 + u_hastnae_11 + u_hastnae_30 <= 1
 x_le_sum_u_v7_hastnae: x_v7_hastnae - u_hastnae_19 - u_hastnae_29
                        - u_hastnae_30 - u_hastnae_38 <= 0
 sum_u_le_1_v7_hastnae: u_hastnae_19 + u_hastnae_29 + u_hastnae_30
                        + u_hastnae_38 <= 1
 x_le_sum_u_v8_hastnae: x_v8_hastnae - u_hastnae_6 - u_hastnae_25 - u_hastnae_29
                        - u_hastnae_34 <= 0
 sum_u_le_1_v8_hastnae: u_hastnae_6 + u_hastnae_25 + u_hastnae_29 + u_hastnae_34
                         <= 1
 x_le_sum_u_v9_hastnae: x_v9_hastnae - u_hastnae_15 - u_hastnae_25
                        - u_hastnae_26 - u_hastnae_37 <= 0
 sum_u_le_1_v9_hastnae: u_hastnae_15 + u_hastnae_25 + u_hastnae_26
                        + u_hastnae_37 <= 1
 x_le_sum_u_v10_hastnae: x_v10_hastnae - u_hastnae_14 - u_hastnae_15
                         - u_hastnae_20 <= 0
 sum_u_le_1_v10_hastnae: u_hastnae_14 + u_hastnae_15 + u_hastnae_20 <= 1
 x_le_sum_u_v11_hastnae: x_v11_hastnae - u_hastnae_9 - u_hastnae_11
                         - u_hastnae_32 <= 0
 sum_u_le_1_v11_hastnae: u_hastnae_9 + u_hastnae_11 + u_hastnae_32 <= 1
 capacity_hastnae_0: y_v12_hastnae_0 + y_v13_hastnae_0 + y_v14_hastnae_0
                     + y_v15_hastnae_0 + y_v16_hastnae_0 + y_v17_hastnae_0
                     + y_v18_hastnae_0 + y_v19_hastnae_0 + y_v20_hastnae_0
                     + y_v22_hastnae_0 + y_v23_hastnae_0 + y_v24_hastnae_0
                     + y_v25_hastnae_0 + y_v2_hastnae_0 + y_v3_hastnae_0
                     + y_v4_hastnae_0 + y_v5_hastnae_0 + y_v7_hastnae_0
                     + y_v8_hastnae_0 + y_v9_hastnae_0 + y_v10_hastnae_0
                     + y_v11_hastnae_0 - u_hastnae_0 <= 0
 capacity_hastnae_1: y_v12_hastnae_1 + y_v13_hastnae_1 + y_v14_hastnae_1
                     + y_v15_hastnae_1 + y_v16_hastnae_1 + y_v17_hastnae_1
                     + y_v18_hastnae_1 + y_v19_hastnae_1 + y_v20_hastnae_1
                     + y_v21_hastnae_1 + y_v22_hastnae_1 + y_v23_hastnae_1
                     + y_v24_hastnae_1 + y_v25_hastnae_1 + y_v9_hastnae_1
                     - u_hastnae_1 <= 0
 capacity_hastnae_2: y_v12_hastnae_2 + y_v13_hastnae_2 + y_v16_hastnae_2
                     + y_v17_hastnae_2 + y_v21_hastnae_2 + y_v1_hastnae_2
                     + y_v2_hastnae_2 + y_v3_hastnae_2 + y_v4_hastnae_2
                     + y_v6_hastnae_2 + y_v7_hastnae_2 + y_v8_hastnae_2
                     + y_v9_hastnae_2 + y_v11_hastnae_2 - u_hastnae_2 <= 0
 capacity_hastnae_3: y_v12_hastnae_3 + y_v13_hastnae_3 + y_v14_hastnae_3
                     + y_v15_hastnae_3 + y_v16_hastnae_3 + y_v17_hastnae_3
                     + y_v18_hastnae_3 + y_v19_hastnae_3 + y_v20_hastnae_3
                     + y_v21_hastnae_3 + y_v22_hastnae_3 + y_v23_hastnae_3
                     + y_v24_hastnae_3 + y_v25_hastnae_3 + y_v1_hastnae_3
                     + y_v2_hastnae_3 + y_v6_hastnae_3 + y_v7_hastnae_3
                     + y_v8_hastnae_3 + y_v9_hastnae_3 + y_v11_hastnae_3
                     - u_hastnae_3 <= 0
 capacity_hastnae_4: y_v12_hastnae_4 + y_v13_hastnae_4 + y_v14_hastnae_4
                     + y_v15_hastnae_4 + y_v16_hastnae_4 + y_v17_hastnae_4
                     + y_v18_hastnae_4 + y_v19_hastnae_4 + y_v20_hastnae_4
                     + y_v21_hastnae_4 + y_v22_hastnae_4 + y_v23_hastnae_4
                     + y_v24_hastnae_4 + y_v25_hastnae_4 + y_v1_hastnae_4
                     + y_v2_hastnae_4 + y_v3_hastnae_4 + y_v4_hastnae_4
                     + y_v6_hastnae_4 + y_v7_hastnae_4 + y_v8_hastnae_4
                     + y_v9_hastnae_4 + y_v11_hastnae_4 - u_hastnae_4 <= 0
 capacity_hastnae_5: y_v12_hastnae_5 + y_v13_hastnae_5 + y_v14_hastnae_5
                     + y_v15_hastnae_5 + y_v16_hastnae_5 + y_v17_hastnae_5
                     + y_v18_hastnae_5 + y_v19_hastnae_5 + y_v20_hastnae_5
                     + y_v21_hastnae_5 + y_v22_hastnae_5 + y_v23_hastnae_5
                     + y_v24_hastnae_5 + y_v25_hastnae_5 + y_v4_hastnae_5
                     + y_v5_hastnae_5 + y_v7_hastnae_5 + y_v8_hastnae_5
                     + y_v9_hastnae_5 + y_v10_hastnae_5 + y_v11_hastnae_5
                     - u_hastnae_5 <= 0
 capacity_hastnae_6: y_v12_hastnae_6 + y_v13_hastnae_6 + y_v14_hastnae_6
                     + y_v15_hastnae_6 + y_v17_hastnae_6 + y_v18_hastnae_6
                     + y_v19_hastnae_6 + y_v20_hastnae_6 + y_v1_hastnae_6
                     + y_v2_hastnae_6 + y_v3_hastnae_6 + y_v4_hastnae_6
                     + y_v5_hastnae_6 + y_v6_hastnae_6 + y_v7_hastnae_6
                     + y_v8_hastnae_6 + y_v9_hastnae_6 + y_v10_hastnae_6
                     + y_v11_hastnae_6 - u_hastnae_6 <= 0
 capacity_hastnae_7: y_v12_hastnae_7 + y_v13_hastnae_7 + y_v14_hastnae_7
                     + y_v16_hastnae_7 + y_v17_hastnae_7 + y_v18_hastnae_7
                     + y_v19_hastnae_7 + y_v21_hastnae_7 + y_v22_hastnae_7
                     + y_v23_hastnae_7 + y_v24_hastnae_7 + y_v1_hastnae_7
                     + y_v6_hastnae_7 + y_v7_hastnae_7 + y_v11_hastnae_7
                     - u_hastnae_7 <= 0
 capacity_hastnae_8: y_v12_hastnae_8 + y_v13_hastnae_8 + y_v14_hastnae_8
                     + y_v16_hastnae_8 + y_v17_hastnae_8 + y_v1_hastnae_8
                     + y_v2_hastnae_8 + y_v3_hastnae_8 + y_v4_hastnae_8
                     + y_v5_hastnae_8 + y_v6_hastnae_8 + y_v7_hastnae_8
                     + y_v8_hastnae_8 + y_v9_hastnae_8 + y_v10_hastnae_8
                     + y_v11_hastnae_8 - u_hastnae_8 <= 0
 capacity_hastnae_9: y_v12_hastnae_9 + y_v13_hastnae_9 + y_v14_hastnae_9
                     + y_v16_hastnae_9 + y_v17_hastnae_9 + y_v18_hastnae_9
                     + y_v19_hastnae_9 + y_v21_hastnae_9 + y_v22_hastnae_9
                     + y_v23_hastnae_9 + y_v24_hastnae_9 + y_v1_hastnae_9
                     + y_v2_hastnae_9 + y_v6_hastnae_9 + y_v7_hastnae_9
                     + y_v8_hastnae_9 + y_v11_hastnae_9 - u_hastnae_9 <= 0
 capacity_hastnae_10: y_v12_hastnae_10 + y_v13_hastnae_10 + y_v14_hastnae_10
                      + y_v16_hastnae_10 + y_v17_hastnae_10 + y_v18_hastnae_10
                      + y_v19_hastnae_10 + y_v20_hastnae_10 + y_v21_hastnae_10
                      + y_v22_hastnae_10 + y_v23_hastnae_10 + y_v24_hastnae_10
                      + y_v25_hastnae_10 + y_v7_hastnae_10 + y_v11_hastnae_10
                      - u_hastnae_10 <= 0
 capacity_hastnae_11: y_v12_hastnae_11 + y_v13_hastnae_11 + y_v14_hastnae_11
                      + y_v16_hastnae_11 + y_v17_hastnae_11 + y_v18_hastnae_11
                      + y_v19_hastnae_11 + y_v21_hastnae_11 + y_v22_hastnae_11
                      + y_v1_hastnae_11 + y_v2_hastnae_11 + y_v3_hastnae_11
                      + y_v4_hastnae_11 + y_v6_hastnae_11 + y_v7_hastnae_11
                      + y_v8_hastnae_11 + y_v9_hastnae_11 + y_v11_hastnae_11
                      - u_hastnae_11 <= 0
 capacity_hastnae_12: y_v12_hastnae_12 + y_v13_hastnae_12 + y_v14_hastnae_12
                      + y_v15_hastnae_12 + y_v16_hastnae_12 + y_v17_hastnae_12
                      + y_v18_hastnae_12 + y_v19_hastnae_12 + y_v20_hastnae_12
                      + y_v21_hastnae_12 + y_v22_hastnae_12 + y_v23_hastnae_12
                      + y_v24_hastnae_12 + y_v25_hastnae_12 + y_v3_hastnae_12
                      + y_v7_hastnae_12 + y_v8_hastnae_12 + y_v9_hastnae_12
                      + y_v10_hastnae_12 + y_v11_hastnae_12 - u_hastnae_12 <= 0
 capacity_hastnae_13: y_v12_hastnae_13 + y_v13_hastnae_13 + y_v14_hastnae_13
                      + y_v15_hastnae_13 + y_v18_hastnae_13 + y_v19_hastnae_13
                      + y_v1_hastnae_13 + y_v2_hastnae_13 + y_v3_hastnae_13
                      + y_v4_hastnae_13 + y_v5_hastnae_13 + y_v6_hastnae_13
                      + y_v7_hastnae_13 + y_v8_hastnae_13 + y_v9_hastnae_13
                      + y_v10_hastnae_13 - u_hastnae_13 <= 0
 capacity_hastnae_14: y_v13_hastnae_14 + y_v14_hastnae_14 + y_v15_hastnae_14
                      + y_v18_hastnae_14 + y_v19_hastnae_14 + y_v20_hastnae_14
                      + y_v25_hastnae_14 + y_v2_hastnae_14 + y_v3_hastnae_14
                      + y_v4_hastnae_14 + y_v5_hastnae_14 + y_v7_hastnae_14
                      + y_v8_hastnae_14 + y_v9_hastnae_14 + y_v10_hastnae_14
                      - u_hastnae_14 <= 0
 capacity_hastnae_15: y_v12_hastnae_15 + y_v13_hastnae_15 + y_v14_hastnae_15
                      + y_v15_hastnae_15 + y_v17_hastnae_15 + y_v18_hastnae_15
                      + y_v19_hastnae_15 + y_v20_hastnae_15 + y_v24_hastnae_15
                      + y_v25_hastnae_15 + y_v1_hastnae_15 + y_v2_hastnae_15
                      + y_v3_hastnae_15 + y_v4_hastnae_15 + y_v5_hastnae_15
                      + y_v6_hastnae_15 + y_v7_hastnae_15 + y_v8_hastnae_15
                      + y_v9_hastnae_15 + y_v10_hastnae_15 - u_hastnae_15 <= 0
 capacity_hastnae_16: y_v12_hastnae_16 + y_v13_hastnae_16 + y_v14_hastnae_16
                      + y_v15_hastnae_16 + y_v17_hastnae_16 + y_v18_hastnae_16
                      + y_v1_hastnae_16 + y_v2_hastnae_16 + y_v3_hastnae_16
                      + y_v4_hastnae_16 + y_v5_hastnae_16 + y_v6_hastnae_16
                      + y_v7_hastnae_16 + y_v8_hastnae_16 + y_v9_hastnae_16
                      + y_v10_hastnae_16 + y_v11_hastnae_16 - u_hastnae_16 <= 0
 capacity_hastnae_17: y_v12_hastnae_17 + y_v13_hastnae_17 + y_v14_hastnae_17
                      + y_v15_hastnae_17 + y_v16_hastnae_17 + y_v17_hastnae_17
                      + y_v18_hastnae_17 + y_v19_hastnae_17 + y_v20_hastnae_17
                      + y_v21_hastnae_17 + y_v22_hastnae_17 + y_v23_hastnae_17
                      + y_v24_hastnae_17 + y_v25_hastnae_17 + y_v2_hastnae_17
                      + y_v3_hastnae_17 + y_v6_hastnae_17 + y_v7_hastnae_17
                      + y_v8_hastnae_17 + y_v9_hastnae_17 + y_v10_hastnae_17
                      + y_v11_hastnae_17 - u_hastnae_17 <= 0
 capacity_hastnae_18: y_v12_hastnae_18 + y_v13_hastnae_18 + y_v14_hastnae_18
                      + y_v15_hastnae_18 + y_v16_hastnae_18 + y_v17_hastnae_18
                      + y_v18_hastnae_18 + y_v19_hastnae_18 + y_v20_hastnae_18
                      + y_v21_hastnae_18 + y_v22_hastnae_18 + y_v23_hastnae_18
                      + y_v24_hastnae_18 + y_v25_hastnae_18 + y_v2_hastnae_18
                      + y_v3_hastnae_18 + y_v4_hastnae_18 + y_v5_hastnae_18
                      + y_v6_hastnae_18 + y_v7_hastnae_18 + y_v8_hastnae_18
                      + y_v9_hastnae_18 + y_v10_hastnae_18 + y_v11_hastnae_18
                      - u_hastnae_18 <= 0
 capacity_hastnae_19: y_v12_hastnae_19 + y_v13_hastnae_19 + y_v14_hastnae_19
                      + y_v15_hastnae_19 + y_v16_hastnae_19 + y_v17_hastnae_19
                      + y_v18_hastnae_19 + y_v19_hastnae_19 + y_v20_hastnae_19
                      + y_v21_hastnae_19 + y_v22_hastnae_19 + y_v23_hastnae_19
                      + y_v24_hastnae_19 + y_v1_hastnae_19 + y_v2_hastnae_19
                      + y_v3_hastnae_19 + y_v4_hastnae_19 + y_v5_hastnae_19
                      + y_v6_hastnae_19 + y_v7_hastnae_19 + y_v8_hastnae_19
                      + y_v9_hastnae_19 + y_v10_hastnae_19 + y_v11_hastnae_19
                      - u_hastnae_19 <= 0
 capacity_hastnae_20: y_v12_hastnae_20 + y_v13_hastnae_20 + y_v14_hastnae_20
                      + y_v15_hastnae_20 + y_v17_hastnae_20 + y_v18_hastnae_20
                      + y_v19_hastnae_20 + y_v20_hastnae_20 + y_v24_hastnae_20
                      + y_v25_hastnae_20 + y_v2_hastnae_20 + y_v3_hastnae_20
                      + y_v4_hastnae_20 + y_v5_hastnae_20 + y_v7_hastnae_20
                      + y_v8_hastnae_20 + y_v9_hastnae_20 + y_v10_hastnae_20
                      - u_hastnae_20 <= 0
 capacity_hastnae_21: y_v12_hastnae_21 + y_v13_hastnae_21 + y_v14_hastnae_21
                      + y_v15_hastnae_21 + y_v16_hastnae_21 + y_v17_hastnae_21
                      + y_v18_hastnae_21 + y_v19_hastnae_21 + y_v20_hastnae_21
                      + y_v21_hastnae_21 + y_v22_hastnae_21 + y_v23_hastnae_21
                      + y_v24_hastnae_21 + y_v25_hastnae_21 + y_v1_hastnae_21
                      + y_v2_hastnae_21 + y_v3_hastnae_21 + y_v4_hastnae_21
                      + y_v5_hastnae_21 + y_v6_hastnae_21 + y_v7_hastnae_21
                      + y_v8_hastnae_21 + y_v9_hastnae_21 + y_v10_hastnae_21
                      + y_v11_hastnae_21 - u_hastnae_21 <= 0
 capacity_hastnae_22: y_v12_hastnae_22 + y_v13_hastnae_22 + y_v14_hastnae_22
                      + y_v15_hastnae_22 + y_v16_hastnae_22 + y_v17_hastnae_22
                      + y_v18_hastnae_22 + y_v19_hastnae_22 + y_v20_hastnae_22
                      + y_v21_hastnae_22 + y_v22_hastnae_22 + y_v23_hastnae_22
                      + y_v24_hastnae_22 + y_v25_hastnae_22 + y_v3_hastnae_22
                      + y_v4_hastnae_22 + y_v7_hastnae_22 + y_v8_hastnae_22
                      + y_v9_hastnae_22 + y_v10_hastnae_22 + y_v11_hastnae_22
                      - u_hastnae_22 <= 0
 capacity_hastnae_23: y_v12_hastnae_23 + y_v13_hastnae_23 + y_v14_hastnae_23
                      + y_v15_hastnae_23 + y_v19_hastnae_23 + y_v20_hastnae_23
                      + y_v1_hastnae_23 + y_v2_hastnae_23 + y_v3_hastnae_23
                      + y_v4_hastnae_23 + y_v5_hastnae_23 + y_v6_hastnae_23
                      + y_v7_hastnae_23 + y_v8_hastnae_23 + y_v9_hastnae_23
                      + y_v10_hastnae_23 - u_hastnae_23 <= 0
 capacity_hastnae_24: y_v12_hastnae_24 + y_v13_hastnae_24 + y_v14_hastnae_24
                      + y_v15_hastnae_24 + y_v17_hastnae_24 + y_v18_hastnae_24
                      + y_v19_hastnae_24 + y_v20_hastnae_24 + y_v22_hastnae_24
                      + y_v23_hastnae_24 + y_v24_hastnae_24 + y_v25_hastnae_24
                      + y_v3_hastnae_24 + y_v4_hastnae_24 + y_v5_hastnae_24
                      + y_v8_hastnae_24 + y_v9_hastnae_24 + y_v10_hastnae_24
                      - u_hastnae_24 <= 0
 capacity_hastnae_25: y_v12_hastnae_25 + y_v13_hastnae_25 + y_v14_hastnae_25
                      + y_v15_hastnae_25 + y_v17_hastnae_25 + y_v18_hastnae_25
                      + y_v19_hastnae_25 + y_v20_hastnae_25 + y_v24_hastnae_25
                      + y_v1_hastnae_25 + y_v2_hastnae_25 + y_v3_hastnae_25
                      + y_v4_hastnae_25 + y_v5_hastnae_25 + y_v6_hastnae_25
                      + y_v7_hastnae_25 + y_v8_hastnae_25 + y_v9_hastnae_25
                      + y_v10_hastnae_25 + y_v11_hastnae_25 - u_hastnae_25 <= 0
 capacity_hastnae_26: y_v12_hastnae_26 + y_v13_hastnae_26 + y_v14_hastnae_26
                      + y_v15_hastnae_26 + y_v17_hastnae_26 + y_v18_hastnae_26
                      + y_v19_hastnae_26 + y_v20_hastnae_26 + y_v24_hastnae_26
                      + y_v1_hastnae_26 + y_v2_hastnae_26 + y_v3_hastnae_26
                      + y_v4_hastnae_26 + y_v5_hastnae_26 + y_v6_hastnae_26
                      + y_v7_hastnae_26 + y_v8_hastnae_26 + y_v9_hastnae_26
                      + y_v10_hastnae_26 - u_hastnae_26 <= 0
 capacity_hastnae_27: y_v12_hastnae_27 + y_v13_hastnae_27 + y_v14_hastnae_27
                      + y_v15_hastnae_27 + y_v16_hastnae_27 + y_v17_hastnae_27
                      + y_v18_hastnae_27 + y_v19_hastnae_27 + y_v20_hastnae_27
                      + y_v21_hastnae_27 + y_v22_hastnae_27 + y_v23_hastnae_27
                      + y_v24_hastnae_27 + y_v25_hastnae_27 + y_v2_hastnae_27
                      + y_v6_hastnae_27 + y_v7_hastnae_27 + y_v8_hastnae_27
                      + y_v9_hastnae_27 + y_v11_hastnae_27 - u_hastnae_27 <= 0
 capacity_hastnae_28: y_v12_hastnae_28 + y_v13_hastnae_28 + y_v14_hastnae_28
                      + y_v15_hastnae_28 + y_v17_hastnae_28 + y_v18_hastnae_28
                      + y_v19_hastnae_28 + y_v20_hastnae_28 + y_v22_hastnae_28
                      + y_v23_hastnae_28 + y_v24_hastnae_28 + y_v25_hastnae_28
                      + y_v5_hastnae_28 + y_v8_hastnae_28 + y_v9_hastnae_28
                      + y_v10_hastnae_28 - u_hastnae_28 <= 0
 capacity_hastnae_29: y_v12_hastnae_29 + y_v13_hastnae_29 + y_v14_hastnae_29
                      + y_v15_hastnae_29 + y_v16_hastnae_29 + y_v17_hastnae_29
                      + y_v18_hastnae_29 + y_v19_hastnae_29 + y_v20_hastnae_29
                      + y_v22_hastnae_29 + y_v1_hastnae_29 + y_v2_hastnae_29
                      + y_v3_hastnae_29 + y_v4_hastnae_29 + y_v5_hastnae_29
                      + y_v6_hastnae_29 + y_v7_hastnae_29 + y_v8_hastnae_29
                      + y_v9_hastnae_29 + y_v10_hastnae_29 + y_v11_hastnae_29
                      - u_hastnae_29 <= 0
 capacity_hastnae_30: y_v12_hastnae_30 + y_v13_hastnae_30 + y_v14_hastnae_30
                      + y_v16_hastnae_30 + y_v17_hastnae_30 + y_v18_hastnae_30
                      + y_v19_hastnae_30 + y_v21_hastnae_30 + y_v22_hastnae_30
                      + y_v1_hastnae_30 + y_v2_hastnae_30 + y_v3_hastnae_30
                      + y_v4_hastnae_30 + y_v5_hastnae_30 + y_v6_hastnae_30
                      + y_v7_hastnae_30 + y_v8_hastnae_30 + y_v9_hastnae_30
                      + y_v10_hastnae_30 + y_v11_hastnae_30 - u_hastnae_30 <= 0
 capacity_hastnae_31: y_v12_hastnae_31 + y_v13_hastnae_31 + y_v14_hastnae_31
                      + y_v15_hastnae_31 + y_v16_hastnae_31 + y_v17_hastnae_31
                      + y_v18_hastnae_31 + y_v19_hastnae_31 + y_v20_hastnae_31
                      + y_v21_hastnae_31 + y_v22_hastnae_31 + y_v23_hastnae_31
                      + y_v24_hastnae_31 + y_v25_hastnae_31 + y_v2_hastnae_31
                      + y_v3_hastnae_31 + y_v4_hastnae_31 + y_v5_hastnae_31
                      + y_v7_hastnae_31 + y_v8_hastnae_31 + y_v9_hastnae_31
                      + y_v10_hastnae_31 + y_v11_hastnae_31 - u_hastnae_31 <= 0
 capacity_hastnae_32: y_v12_hastnae_32 + y_v13_hastnae_32 + y_v14_hastnae_32
                      + y_v15_hastnae_32 + y_v16_hastnae_32 + y_v17_hastnae_32
                      + y_v18_hastnae_32 + y_v19_hastnae_32 + y_v20_hastnae_32
                      + y_v21_hastnae_32 + y_v22_hastnae_32 + y_v23_hastnae_32
                      + y_v24_hastnae_32 + y_v1_hastnae_32 + y_v2_hastnae_32
                      + y_v3_hastnae_32 + y_v4_hastnae_32 + y_v6_hastnae_32
                      + y_v7_hastnae_32 + y_v8_hastnae_32 + y_v9_hastnae_32
                      + y_v11_hastnae_32 - u_hastnae_32 <= 0
 capacity_hastnae_33: y_v12_hastnae_33 + y_v13_hastnae_33 + y_v14_hastnae_33
                      + y_v15_hastnae_33 + y_v16_hastnae_33 + y_v17_hastnae_33
                      + y_v18_hastnae_33 + y_v19_hastnae_33 + y_v20_hastnae_33
                      + y_v21_hastnae_33 + y_v22_hastnae_33 + y_v23_hastnae_33
                      + y_v24_hastnae_33 + y_v25_hastnae_33 + y_v4_hastnae_33
                      + y_v7_hastnae_33 + y_v8_hastnae_33 + y_v9_hastnae_33
                      + y_v10_hastnae_33 + y_v11_hastnae_33 - u_hastnae_33 <= 0
 capacity_hastnae_34: y_v12_hastnae_34 + y_v13_hastnae_34 + y_v14_hastnae_34
                      + y_v15_hastnae_34 + y_v16_hastnae_34 + y_v17_hastnae_34
                      + y_v18_hastnae_34 + y_v19_hastnae_34 + y_v20_hastnae_34
                      + y_v22_hastnae_34 + y_v23_hastnae_34 + y_v24_hastnae_34
                      + y_v25_hastnae_34 + y_v1_hastnae_34 + y_v2_hastnae_34
                      + y_v3_hastnae_34 + y_v4_hastnae_34 + y_v5_hastnae_34
                      + y_v6_hastnae_34 + y_v7_hastnae_34 + y_v8_hastnae_34
                      + y_v9_hastnae_34 + y_v10_hastnae_34 + y_v11_hastnae_34
                      - u_hastnae_34 <= 0
 capacity_hastnae_35: y_v12_hastnae_35 + y_v13_hastnae_35 + y_v14_hastnae_35
                      + y_v15_hastnae_35 + y_v16_hastnae_35 + y_v17_hastnae_35
                      + y_v18_hastnae_35 + y_v19_hastnae_35 + y_v20_hastnae_35
                      + y_v22_hastnae_35 + y_v23_hastnae_35 + y_v24_hastnae_35
                      + y_v25_hastnae_35 + y_v2_hastnae_35 + y_v3_hastnae_35
                      + y_v4_hastnae_35 + y_v5_hastnae_35 + y_v6_hastnae_35
                      + y_v7_hastnae_35 + y_v8_hastnae_35 + y_v9_hastnae_35
                      + y_v10_hastnae_35 + y_v11_hastnae_35 - u_hastnae_35 <= 0
 capacity_hastnae_36: y_v12_hastnae_36 + y_v13_hastnae_36 + y_v14_hastnae_36
                      + y_v16_hastnae_36 + y_v17_hastnae_36 + y_v18_hastnae_36
                      + y_v19_hastnae_36 + y_v20_hastnae_36 + y_v21_hastnae_36
                      + y_v22_hastnae_36 + y_v23_hastnae_36 + y_v24_hastnae_36
                      + y_v25_hastnae_36 + y_v6_hastnae_36 + y_v7_hastnae_36
                      + y_v11_hastnae_36 - u_hastnae_36 <= 0
 capacity_hastnae_37: y_v12_hastnae_37 + y_v13_hastnae_37 + y_v14_hastnae_37
                      + y_v15_hastnae_37 + y_v16_hastnae_37 + y_v17_hastnae_37
                      + y_v18_hastnae_37 + y_v19_hastnae_37 + y_v20_hastnae_37
                      + y_v22_hastnae_37 + y_v23_hastnae_37 + y_v24_hastnae_37
                      + y_v25_hastnae_37 + y_v1_hastnae_37 + y_v2_hastnae_37
                      + y_v3_hastnae_37 + y_v4_hastnae_37 + y_v5_hastnae_37
                      + y_v6_hastnae_37 + y_v7_hastnae_37 + y_v8_hastnae_37
                      + y_v9_hastnae_37 + y_v10_hastnae_37 + y_v11_hastnae_37
                      - u_hastnae_37 <= 0
 capacity_hastnae_38: y_v12_hastnae_38 + y_v13_hastnae_38 + y_v14_hastnae_38
                      + y_v16_hastnae_38 + y_v17_hastnae_38 + y_v18_hastnae_38
                      + y_v19_hastnae_38 + y_v22_hastnae_38 + y_v1_hastnae_38
                      + y_v2_hastnae_38 + y_v3_hastnae_38 + y_v4_hastnae_38
                      + y_v5_hastnae_38 + y_v6_hastnae_38 + y_v7_hastnae_38
                      + y_v8_hastnae_38 + y_v9_hastnae_38 + y_v10_hastnae_38
                      + y_v11_hastnae_38 - u_hastnae_38 <= 0
 capacity_hastnae_39: y_v12_hastnae_39 + y_v13_hastnae_39 + y_v14_hastnae_39
                      + y_v15_hastnae_39 + y_v16_hastnae_39 + y_v17_hastnae_39
                      + y_v18_hastnae_39 + y_v19_hastnae_39 + y_v20_hastnae_39
                      + y_v21_hastnae_39 + y_v22_hastnae_39 + y_v23_hastnae_39
                      + y_v24_hastnae_39 + y_v25_hastnae_39 + y_v9_hastnae_39
                      + y_v10_hastnae_39 - u_hastnae_39 <= 0

Bounds
 0 <= x_v12_hastnae <= 1
 0 <= x_v12_R <= 1
 0 <= x_v13_hastnae <= 1
 0 <= x_v13_R <= 1
 0 <= x_v14_hastnae <= 1
 0 <= x_v14_R <= 1
 0 <= x_v15_hastnae <= 1
 0 <= x_v15_R <= 1
 0 <= x_v16_hastnae <= 1
 0 <= x_v16_R <= 1
 0 <= x_v17_hastnae <= 1
 0 <= x_v17_R <= 1
 0 <= x_v18_hastnae <= 1
 0 <= x_v18_R <= 1
 0 <= x_v19_hastnae <= 1
 0 <= x_v19_R <= 1
 0 <= x_v20_hastnae <= 1
 0 <= x_v20_R <= 1
 0 <= x_v21_hastnae <= 1
 0 <= x_v21_R <= 1
 0 <= x_v22_hastnae <= 1
 0 <= x_v22_R <= 1
 0 <= x_v23_hastnae <= 1
 0 <= x_v23_R <= 1
 0 <= x_v24_hastnae <= 1
 0 <= x_v24_R <= 1
 0 <= x_v25_hastnae <= 1
 0 <= x_v25_R <= 1
 0 <= x_v1_hastnae <= 1
 0 <= x_v1_R <= 1
 0 <= x_v2_hastnae <= 1
 0 <= x_v2_R <= 1
 0 <= x_v3_hastnae <= 1
 0 <= x_v3_R <= 1
 0 <= x_v4_hastnae <= 1
 0 <= x_v4_R <= 1
 0 <= x_v5_hastnae <= 1
 0 <= x_v5_R <= 1
 0 <= x_v6_hastnae <= 1
 0 <= x_v6_R <= 1
 0 <= x_v7_hastnae <= 1
 0 <= x_v7_R <= 1
 0 <= x_v8_hastnae <= 1
 0 <= x_v8_R <= 1
 0 <= x_v9_hastnae <= 1
 0 <= x_v9_R <= 1
 0 <= x_v10_hastnae <= 1
 0 <= x_v10_R <= 1
 0 <= x_v11_hastnae <= 1
 0 <= x_v11_R <= 1
 0 <= u_hastnae_0 <= 1
 0 <= u_hastnae_1 <= 1
 0 <= u_hastnae_2 <= 1
 0 <= u_hastnae_3 <= 1
 0 <= u_hastnae_4 <= 1
 0 <= u_hastnae_5 <= 1
 0 <= u_hastnae_6 <= 1
 0 <= u_hastnae_7 <= 1
 0 <= u_hastnae_8 <= 1
 0 <= u_hastnae_9 <= 1
 0 <= u_hastnae_10 <= 1
 0 <= u_hastnae_11 <= 1
 0 <= u_hastnae_12 <= 1
 0 <= u_hastnae_13 <= 1
 0 <= u_hastnae_14 <= 1
 0 <= u_hastnae_15 <= 1
 0 <= u_hastnae_16 <= 1
 0 <= u_hastnae_17 <= 1
 0 <= u_hastnae_18 <= 1
 0 <= u_hastnae_19 <= 1
 0 <= u_hastnae_20 <= 1
 0 <= u_hastnae_21 <= 1
 0 <= u_hastnae_22 <= 1
 0 <= u_hastnae_23 <= 1
 0 <= u_hastnae_24 <= 1
 0 <= u_hastnae_25 <= 1
 0 <= u_hastnae_26 <= 1
 0 <= u_hastnae_27 <= 1
 0 <= u_hastnae_28 <= 1
 0 <= u_hastnae_29 <= 1
 0 <= u_hastnae_30 <= 1
 0 <= u_hastnae_31 <= 1
 0 <= u_hastnae_32 <= 1
 0 <= u_hastnae_33 <= 1
 0 <= u_hastnae_34 <= 1
 0 <= u_hastnae_35 <= 1
 0 <= u_hastnae_36 <= 1
 0 <= u_hastnae_37 <= 1
 0 <= u_hastnae_38 <= 1
 0 <= u_hastnae_39 <= 1
 0 <= y_v12_hastnae_0 <= 1
 0 <= y_v12_hastnae_1 <= 1
 0 <= y_v12_hastnae_2 <= 1
 0 <= y_v12_hastnae_3 <= 1
 0 <= y_v12_hastnae_4 <= 1
 0 <= y_v12_hastnae_5 <= 1
 0 <= y_v12_hastnae_6 <= 1
 0 <= y_v12_hastnae_7 <= 1
 0 <= y_v12_hastnae_8 <= 1
 0 <= y_v12_hastnae_9 <= 1
 0 <= y_v12_hastnae_10 <= 1
 0 <= y_v12_hastnae_11 <= 1
 0 <= y_v12_hastnae_12 <= 1
 0 <= y_v12_hastnae_13 <= 1
 0 <= y_v12_hastnae_15 <= 1
 0 <= y_v12_hastnae_16 <= 1
 0 <= y_v12_hastnae_17 <= 1
 0 <= y_v12_hastnae_18 <= 1
 0 <= y_v12_hastnae_19 <= 1
 0 <= y_v12_hastnae_20 <= 1
 0 <= y_v12_hastnae_21 <= 1
 0 <= y_v12_hastnae_22 <= 1
 0 <= y_v12_hastnae_23 <= 1
 0 <= y_v12_hastnae_24 <= 1
 0 <= y_v12_hastnae_25 <= 1
 0 <= y_v12_hastnae_26 <= 1
 0 <= y_v12_hastnae_27 <= 1
 0 <= y_v12_hastnae_28 <= 1
 0 <= y_v12_hastnae_29 <= 1
 0 <= y_v12_hastnae_30 <= 1
 0 <= y_v12_hastnae_31 <= 1
 0 <= y_v12_hastnae_32 <= 1
 0 <= y_v12_hastnae_33 <= 1
 0 <= y_v12_hastnae_34 <= 1
 0 <= y_v12_hastnae_35 <= 1
 0 <= y_v12_hastnae_36 <= 1
 0 <= y_v12_hastnae_37 <= 1
 0 <= y_v12_hastnae_38 <= 1
 0 <= y_v12_hastnae_39 <= 1
 0 <= y_v13_hastnae_0 <= 1
 0 <= y_v13_hastnae_1 <= 1
 0 <= y_v13_hastnae_2 <= 1
 0 <= y_v13_hastnae_3 <= 1
 0 <= y_v13_hastnae_4 <= 1
 0 <= y_v13_hastnae_5 <= 1
 0 <= y_v13_hastnae_6 <= 1
 0 <= y_v13_hastnae_7 <= 1
 0 <= y_v13_hastnae_8 <= 1
 0 <= y_v13_hastnae_9 <= 1
 0 <= y_v13_hastnae_10 <= 1
 0 <= y_v13_hastnae_11 <= 1
 0 <= y_v13_hastnae_12 <= 1
 0 <= y_v13_hastnae_13 <= 1
 0 <= y_v13_hastnae_14 <= 1
 0 <= y_v13_hastnae_15 <= 1
 0 <= y_v13_hastnae_16 <= 1
 0 <= y_v13_hastnae_17 <= 1
 0 <= y_v13_hastnae_18 <= 1
 0 <= y_v13_hastnae_19 <= 1
 0 <= y_v13_hastnae_20 <= 1
 0 <= y_v13_hastnae_21 <= 1
 0 <= y_v13_hastnae_22 <= 1
 0 <= y_v13_hastnae_23 <= 1
 0 <= y_v13_hastnae_24 <= 1
 0 <= y_v13_hastnae_25 <= 1
 0 <= y_v13_hastnae_26 <= 1
 0 <= y_v13_hastnae_27 <= 1
 0 <= y_v13_hastnae_28 <= 1
 0 <= y_v13_hastnae_29 <= 1
 0 <= y_v13_hastnae_30 <= 1
 0 <= y_v13_hastnae_31 <= 1
 0 <= y_v13_hastnae_32 <= 1
 0 <= y_v13_hastnae_33 <= 1
 0 <= y_v13_hastnae_34 <= 1
 0 <= y_v13_hastnae_35 <= 1
 0 <= y_v13_hastnae_36 <= 1
 0 <= y_v13_hastnae_37 <= 1
 0 <= y_v13_hastnae_38 <= 1
 0 <= y_v13_hastnae_39 <= 1
 0 <= y_v14_hastnae_0 <= 1
 0 <= y_v14_hastnae_1 <= 1
 0 <= y_v14_hastnae_3 <= 1
 0 <= y_v14_hastnae_4 <= 1
 0 <= y_v14_hastnae_5 <= 1
 0 <= y_v14_hastnae_6 <= 1
 0 <= y_v14_hastnae_7 <= 1
 0 <= y_v14_hastnae_8 <= 1
 0 <= y_v14_hastnae_9 <= 1
 0 <= y_v14_hastnae_10 <= 1
 0 <= y_v14_hastnae_11 <= 1
 0 <= y_v14_hastnae_12 <= 1
 0 <= y_v14_hastnae_13 <= 1
 0 <= y_v14_hastnae_14 <= 1
 0 <= y_v14_hastnae_15 <= 1
 0 <= y_v14_hastnae_16 <= 1
 0 <= y_v14_hastnae_17 <= 1
 0 <= y_v14_hastnae_18 <= 1
 0 <= y_v14_hastnae_19 <= 1
 0 <= y_v14_hastnae_20 <= 1
 0 <= y_v14_hastnae_21 <= 1
 0 <= y_v14_hastnae_22 <= 1
 0 <= y_v14_hastnae_23 <= 1
 0 <= y_v14_hastnae_24 <= 1
 0 <= y_v14_hastnae_25 <= 1
 0 <= y_v14_hastnae_26 <= 1
 0 <= y_v14_hastnae_27 <= 1
 0 <= y_v14_hastnae_28 <= 1
 0 <= y_v14_hastnae_29 <= 1
 0 <= y_v14_hastnae_30 <= 1
 0 <= y_v14_hastnae_31 <= 1
 0 <= y_v14_hastnae_32 <= 1
 0 <= y_v14_hastnae_33 <= 1
 0 <= y_v14_hastnae_34 <= 1
 0 <= y_v14_hastnae_35 <= 1
 0 <= y_v14_hastnae_36 <= 1
 0 <= y_v14_hastnae_37 <= 1
 0 <= y_v14_hastnae_38 <= 1
 0 <= y_v14_hastnae_39 <= 1
 0 <= y_v15_hastnae_0 <= 1
 0 <= y_v15_hastnae_1 <= 1
 0 <= y_v15_hastnae_3 <= 1
 0 <= y_v15_hastnae_4 <= 1
 0 <= y_v15_hastnae_5 <= 1
 0 <= y_v15_hastnae_6 <= 1
 0 <= y_v15_hastnae_12 <= 1
 0 <= y_v15_hastnae_13 <= 1
 0 <= y_v15_hastnae_14 <= 1
 0 <= y_v15_hastnae_15 <= 1
 0 <= y_v15_hastnae_16 <= 1
 0 <= y_v15_hastnae_17 <= 1
 0 <= y_v15_hastnae_18 <= 1
 0 <= y_v15_hastnae_19 <= 1
 0 <= y_v15_hastnae_20 <= 1
 0 <= y_v15_hastnae_21 <= 1
 0 <= y_v15_hastnae_22 <= 1
 0 <= y_v15_hastnae_23 <= 1
 0 <= y_v15_hastnae_24 <= 1
 0 <= y_v15_hastnae_25 <= 1
 0 <= y_v15_hastnae_26 <= 1
 0 <= y_v15_hastnae_27 <= 1
 0 <= y_v15_hastnae_28 <= 1
 0 <= y_v15_hastnae_29 <= 1
 0 <= y_v15_hastnae_31 <= 1
 0 <= y_v15_hastnae_32 <= 1
 0 <= y_v15_hastnae_33 <= 1
 0 <= y_v15_hastnae_34 <= 1
 0 <= y_v15_hastnae_35 <= 1
 0 <= y_v15_hastnae_37 <= 1
 0 <= y_v15_hastnae_39 <= 1
 0 <= y_v16_hastnae_0 <= 1
 0 <= y_v16_hastnae_1 <= 1
 0 <= y_v16_hastnae_2 <= 1
 0 <= y_v16_hastnae_3 <= 1
 0 <= y_v16_hastnae_4 <= 1
 0 <= y_v16_hastnae_5 <= 1
 0 <= y_v16_hastnae_7 <= 1
 0 <= y_v16_hastnae_8 <= 1
 0 <= y_v16_hastnae_9 <= 1
 0 <= y_v16_hastnae_10 <= 1
 0 <= y_v16_hastnae_11 <= 1
 0 <= y_v16_hastnae_12 <= 1
 0 <= y_v16_hastnae_17 <= 1
 0 <= y_v16_hastnae_18 <= 1
 0 <= y_v16_hastnae_19 <= 1
 0 <= y_v16_hastnae_21 <= 1
 0 <= y_v16_hastnae_22 <= 1
 0 <= y_v16_hastnae_27 <= 1
 0 <= y_v16_hastnae_29 <= 1
 0 <= y_v16_hastnae_30 <= 1
 0 <= y_v16_hastnae_31 <= 1
 0 <= y_v16_hastnae_32 <= 1
 0 <= y_v16_hastnae_33 <= 1
 0 <= y_v16_hastnae_34 <= 1
 0 <= y_v16_hastnae_35 <= 1
 0 <= y_v16_hastnae_36 <= 1
 0 <= y_v16_hastnae_37 <= 1
 0 <= y_v16_hastnae_38 <= 1
 0 <= y_v16_hastnae_39 <= 1
 0 <= y_v17_hastnae_0 <= 1
 0 <= y_v17_hastnae_1 <= 1
 0 <= y_v17_hastnae_2 <= 1
 0 <= y_v17_hastnae_3 <= 1
 0 <= y_v17_hastnae_4 <= 1
 0 <= y_v17_hastnae_5 <= 1
 0 <= y_v17_hastnae_6 <= 1
 0 <= y_v17_hastnae_7 <= 1
 0 <= y_v17_hastnae_8 <= 1
 0 <= y_v17_hastnae_9 <= 1
 0 <= y_v17_hastnae_10 <= 1
 0 <= y_v17_hastnae_11 <= 1
 0 <= y_v17_hastnae_12 <= 1
 0 <= y_v17_hastnae_15 <= 1
 0 <= y_v17_hastnae_16 <= 1
 0 <= y_v17_hastnae_17 <= 1
 0 <= y_v17_hastnae_18 <= 1
 0 <= y_v17_hastnae_19 <= 1
 0 <= y_v17_hastnae_20 <= 1
 0 <= y_v17_hastnae_21 <= 1
 0 <= y_v17_hastnae_22 <= 1
 0 <= y_v17_hastnae_24 <= 1
 0 <= y_v17_hastnae_25 <= 1
 0 <= y_v17_hastnae_26 <= 1
 0 <= y_v17_hastnae_27 <= 1
 0 <= y_v17_hastnae_28 <= 1
 0 <= y_v17_hastnae_29 <= 1
 0 <= y_v17_hastnae_30 <= 1
 0 <= y_v17_hastnae_31 <= 1
 0 <= y_v17_hastnae_32 <= 1
 0 <= y_v17_hastnae_33 <= 1
 0 <= y_v17_hastnae_34 <= 1
 0 <= y_v17_hastnae_35 <= 1
 0 <= y_v17_hastnae_36 <= 1
 0 <= y_v17_hastnae_37 <= 1
 0 <= y_v17_hastnae_38 <= 1
 0 <= y_v17_hastnae_39 <= 1
 0 <= y_v18_hastnae_0 <= 1
 0 <= y_v18_hastnae_1 <= 1
 0 <= y_v18_hastnae_3 <= 1
 0 <= y_v18_hastnae_4 <= 1
 0 <= y_v18_hastnae_5 <= 1
 0 <= y_v18_hastnae_6 <= 1
 0 <= y_v18_hastnae_7 <= 1
 0 <= y_v18_hastnae_9 <= 1
 0 <= y_v18_hastnae_10 <= 1
 0 <= y_v18_hastnae_11 <= 1
 0 <= y_v18_hastnae_12 <= 1
 0 <= y_v18_hastnae_13 <= 1
 0 <= y_v18_hastnae_14 <= 1
 0 <= y_v18_hastnae_15 <= 1
 0 <= y_v18_hastnae_16 <= 1
 0 <= y_v18_hastnae_17 <= 1
 0 <= y_v18_hastnae_18 <= 1
 0 <= y_v18_hastnae_19 <= 1
 0 <= y_v18_hastnae_20 <= 1
 0 <= y_v18_hastnae_21 <= 1
 0 <= y_v18_hastnae_22 <= 1
 0 <= y_v18_hastnae_24 <= 1
 0 <= y_v18_hastnae_25 <= 1
 0 <= y_v18_hastnae_26 <= 1
 0 <= y_v18_hastnae_27 <= 1
 0 <= y_v18_hastnae_28 <= 1
 0 <= y_v18_hastnae_29 <= 1
 0 <= y_v18_hastnae_30 <= 1
 0 <= y_v18_hastnae_31 <= 1
 0 <= y_v18_hastnae_32 <= 1
 0 <= y_v18_hastnae_33 <= 1
 0 <= y_v18_hastnae_34 <= 1
 0 <= y_v18_hastnae_35 <= 1
 0 <= y_v18_hastnae_36 <= 1
 0 <= y_v18_hastnae_37 <= 1
 0 <= y_v18_hastnae_38 <= 1
 0 <= y_v18_hastnae_39 <= 1
 0 <= y_v19_hastnae_0 <= 1
 0 <= y_v19_hastnae_1 <= 1
 0 <= y_v19_hastnae_3 <= 1
 0 <= y_v19_hastnae_4 <= 1
 0 <= y_v19_hastnae_5 <= 1
 0 <= y_v19_hastnae_6 <= 1
 0 <= y_v19_hastnae_7 <= 1
 0 <= y_v19_hastnae_9 <= 1
 0 <= y_v19_hastnae_10 <= 1
 0 <= y_v19_hastnae_11 <= 1
 0 <= y_v19_hastnae_12 <= 1
 0 <= y_v19_hastnae_13 <= 1
 0 <= y_v19_hastnae_14 <= 1
 0 <= y_v19_hastnae_15 <= 1
 0 <= y_v19_hastnae_17 <= 1
 0 <= y_v19_hastnae_18 <= 1
 0 <= y_v19_hastnae_19 <= 1
 0 <= y_v19_hastnae_20 <= 1
 0 <= y_v19_hastnae_21 <= 1
 0 <= y_v19_hastnae_22 <= 1
 0 <= y_v19_hastnae_23 <= 1
 0 <= y_v19_hastnae_24 <= 1
 0 <= y_v19_hastnae_25 <= 1
 0 <= y_v19_hastnae_26 <= 1
 0 <= y_v19_hastnae_27 <= 1
 0 <= y_v19_hastnae_28 <= 1
 0 <= y_v19_hastnae_29 <= 1
 0 <= y_v19_hastnae_30 <= 1
 0 <= y_v19_hastnae_31 <= 1
 0 <= y_v19_hastnae_32 <= 1
 0 <= y_v19_hastnae_33 <= 1
 0 <= y_v19_hastnae_34 <= 1
 0 <= y_v19_hastnae_35 <= 1
 0 <= y_v19_hastnae_36 <= 1
 0 <= y_v19_hastnae_37 <= 1
 0 <= y_v19_hastnae_38 <= 1
 0 <= y_v19_hastnae_39 <= 1
 0 <= y_v20_hastnae_0 <= 1
 0 <= y_v20_hastnae_1 <= 1
 0 <= y_v20_hastnae_3 <= 1
 0 <= y_v20_hastnae_4 <= 1
 0 <= y_v20_hastnae_5 <= 1
 0 <= y_v20_hastnae_6 <= 1
 0 <= y_v20_hastnae_10 <= 1
 0 <= y_v20_hastnae_12 <= 1
 0 <= y_v20_hastnae_14 <= 1
 0 <= y_v20_hastnae_15 <= 1
 0 <= y_v20_hastnae_17 <= 1
 0 <= y_v20_hastnae_18 <= 1
 0 <= y_v20_hastnae_19 <= 1
 0 <= y_v20_hastnae_20 <= 1
 0 <= y_v20_hastnae_21 <= 1
 0 <= y_v20_hastnae_22 <= 1
 0 <= y_v20_hastnae_23 <= 1
 0 <= y_v20_hastnae_24 <= 1
 0 <= y_v20_hastnae_25 <= 1
 0 <= y_v20_hastnae_26 <= 1
 0 <= y_v20_hastnae_27 <= 1
 0 <= y_v20_hastnae_28 <= 1
 0 <= y_v20_hastnae_29 <= 1
 0 <= y_v20_hastnae_31 <= 1
 0 <= y_v20_hastnae_32 <= 1
 0 <= y_v20_hastnae_33 <= 1
 0 <= y_v20_hastnae_34 <= 1
 0 <= y_v20_hastnae_35 <= 1
 0 <= y_v20_hastnae_36 <= 1
 0 <= y_v20_hastnae_37 <= 1
 0 <= y_v20_hastnae_39 <= 1
 0 <= y_v21_hastnae_1 <= 1
 0 <= y_v21_hastnae_2 <= 1
 0 <= y_v21_hastnae_3 <= 1
 0 <= y_v21_hastnae_4 <= 1
 0 <= y_v21_hastnae_5 <= 1
 0 <= y_v21_hastnae_7 <= 1
 0 <= y_v21_hastnae_9 <= 1
 0 <= y_v21_hastnae_10 <= 1
 0 <= y_v21_hastnae_11 <= 1
 0 <= y_v21_hastnae_12 <= 1
 0 <= y_v21_hastnae_17 <= 1
 0 <= y_v21_hastnae_18 <= 1
 0 <= y_v21_hastnae_19 <= 1
 0 <= y_v21_hastnae_21 <= 1
 0 <= y_v21_hastnae_22 <= 1
 0 <= y_v21_hastnae_27 <= 1
 0 <= y_v21_hastnae_30 <= 1
 0 <= y_v21_hastnae_31 <= 1
 0 <= y_v21_hastnae_32 <= 1
 0 <= y_v21_hastnae_33 <= 1
 0 <= y_v21_hastnae_36 <= 1
 0 <= y_v21_hastnae_39 <= 1
 0 <= y_v22_hastnae_0 <= 1
 0 <= y_v22_hastnae_1 <= 1
 0 <= y_v22_hastnae_3 <= 1
 0 <= y_v22_hastnae_4 <= 1
 0 <= y_v22_hastnae_5 <= 1
 0 <= y_v22_hastnae_7 <= 1
 0 <= y_v22_hastnae_9 <= 1
 0 <= y_v22_hastnae_10 <= 1
 0 <= y_v22_hastnae_11 <= 1
 0 <= y_v22_hastnae_12 <= 1
 0 <= y_v22_hastnae_17 <= 1
 0 <= y_v22_hastnae_18 <= 1
 0 <= y_v22_hastnae_19 <= 1
 0 <= y_v22_hastnae_21 <= 1
 0 <= y_v22_hastnae_22 <= 1
 0 <= y_v22_hastnae_24 <= 1
 0 <= y_v22_hastnae_27 <= 1
 0 <= y_v22_hastnae_28 <= 1
 0 <= y_v22_hastnae_29 <= 1
 0 <= y_v22_hastnae_30 <= 1
 0 <= y_v22_hastnae_31 <= 1
 0 <= y_v22_hastnae_32 <= 1
 0 <= y_v22_hastnae_33 <= 1
 0 <= y_v22_hastnae_34 <= 1
 0 <= y_v22_hastnae_35 <= 1
 0 <= y_v22_hastnae_36 <= 1
 0 <= y_v22_hastnae_37 <= 1
 0 <= y_v22_hastnae_38 <= 1
 0 <= y_v22_hastnae_39 <= 1
 0 <= y_v23_hastnae_0 <= 1
 0 <= y_v23_hastnae_1 <= 1
 0 <= y_v23_hastnae_3 <= 1
 0 <= y_v23_hastnae_4 <= 1
 0 <= y_v23_hastnae_5 <= 1
 0 <= y_v23_hastnae_7 <= 1
 0 <= y_v23_hastnae_9 <= 1
 0 <= y_v23_hastnae_10 <= 1
 0 <= y_v23_hastnae_12 <= 1
 0 <= y_v23_hastnae_17 <= 1
 0 <= y_v23_hastnae_18 <= 1
 0 <= y_v23_hastnae_19 <= 1
 0 <= y_v23_hastnae_21 <= 1
 0 <= y_v23_hastnae_22 <= 1
 0 <= y_v23_hastnae_24 <= 1
 0 <= y_v23_hastnae_27 <= 1
 0 <= y_v23_hastnae_28 <= 1
 0 <= y_v23_hastnae_31 <= 1
 0 <= y_v23_hastnae_32 <= 1
 0 <= y_v23_hastnae_33 <= 1
 0 <= y_v23_hastnae_34 <= 1
 0 <= y_v23_hastnae_35 <= 1
 0 <= y_v23_hastnae_36 <= 1
 0 <= y_v23_hastnae_37 <= 1
 0 <= y_v23_hastnae_39 <= 1
 0 <= y_v24_hastnae_0 <= 1
 0 <= y_v24_hastnae_1 <= 1
 0 <= y_v24_hastnae_3 <= 1
 0 <= y_v24_hastnae_4 <= 1
 0 <= y_v24_hastnae_5 <= 1
 0 <= y_v24_hastnae_7 <= 1
 0 <= y_v24_hastnae_9 <= 1
 0 <= y_v24_hastnae_10 <= 1
 0 <= y_v24_hastnae_12 <= 1
 0 <= y_v24_hastnae_15 <= 1
 0 <= y_v24_hastnae_17 <= 1
 0 <= y_v24_hastnae_18 <= 1
 0 <= y_v24_hastnae_19 <= 1
 0 <= y_v24_hastnae_20 <= 1
 0 <= y_v24_hastnae_21 <= 1
 0 <= y_v24_hastnae_22 <= 1
 0 <= y_v24_hastnae_24 <= 1
 0 <= y_v24_hastnae_25 <= 1
 0 <= y_v24_hastnae_26 <= 1
 0 <= y_v24_hastnae_27 <= 1
 0 <= y_v24_hastnae_28 <= 1
 0 <= y_v24_hastnae_31 <= 1
 0 <= y_v24_hastnae_32 <= 1
 0 <= y_v24_hastnae_33 <= 1
 0 <= y_v24_hastnae_34 <= 1
 0 <= y_v24_hastnae_35 <= 1
 0 <= y_v24_hastnae_36 <= 1
 0 <= y_v24_hastnae_37 <= 1
 0 <= y_v24_hastnae_39 <= 1
 0 <= y_v25_hastnae_0 <= 1
 0 <= y_v25_hastnae_1 <= 1
 0 <= y_v25_hastnae_3 <= 1
 0 <= y_v25_hastnae_4 <= 1
 0 <= y_v25_hastnae_5 <= 1
 0 <= y_v25_hastnae_10 <= 1
 0 <= y_v25_hastnae_12 <= 1
 0 <= y_v25_hastnae_14 <= 1
 0 <= y_v25_hastnae_15 <= 1
 0 <= y_v25_hastnae_17 <= 1
 0 <= y_v25_hastnae_18 <= 1
 0 <= y_v25_hastnae_20 <= 1
 0 <= y_v25_hastnae_21 <= 1
 0 <= y_v25_hastnae_22 <= 1
 0 <= y_v25_hastnae_24 <= 1
 0 <= y_v25_hastnae_27 <= 1
 0 <= y_v25_hastnae_28 <= 1
 0 <= y_v25_hastnae_31 <= 1
 0 <= y_v25_hastnae_33 <= 1
 0 <= y_v25_hastnae_34 <= 1
 0 <= y_v25_hastnae_35 <= 1
 0 <= y_v25_hastnae_36 <= 1
 0 <= y_v25_hastnae_37 <= 1
 0 <= y_v25_hastnae_39 <= 1
 0 <= y_v1_hastnae_2 <= 1
 0 <= y_v1_hastnae_3 <= 1
 0 <= y_v1_hastnae_4 <= 1
 0 <= y_v1_hastnae_6 <= 1
 0 <= y_v1_hastnae_7 <= 1
 0 <= y_v1_hastnae_8 <= 1
 0 <= y_v1_hastnae_9 <= 1
 0 <= y_v1_hastnae_11 <= 1
 0 <= y_v1_hastnae_13 <= 1
 0 <= y_v1_hastnae_15 <= 1
 0 <= y_v1_hastnae_16 <= 1
 0 <= y_v1_hastnae_19 <= 1
 0 <= y_v1_hastnae_21 <= 1
 0 <= y_v1_hastnae_23 <= 1
 0 <= y_v1_hastnae_25 <= 1
 0 <= y_v1_hastnae_26 <= 1
 0 <= y_v1_hastnae_29 <= 1
 0 <= y_v1_hastnae_30 <= 1
 0 <= y_v1_hastnae_32 <= 1
 0 <= y_v1_hastnae_34 <= 1
 0 <= y_v1_hastnae_37 <= 1
 0 <= y_v1_hastnae_38 <= 1
 0 <= y_v2_hastnae_0 <= 1
 0 <= y_v2_hastnae_2 <= 1
 0 <= y_v2_hastnae_3 <= 1
 0 <= y_v2_hastnae_4 <= 1
 0 <= y_v2_hastnae_6 <= 1
 0 <= y_v2_hastnae_8 <= 1
 0 <= y_v2_hastnae_9 <= 1
 0 <= y_v2_hastnae_11 <= 1
 0 <= y_v2_hastnae_13 <= 1
 0 <= y_v2_hastnae_14 <= 1
 0 <= y_v2_hastnae_15 <= 1
 0 <= y_v2_hastnae_16 <= 1
 0 <= y_v2_hastnae_17 <= 1
 0 <= y_v2_hastnae_18 <= 1
 0 <= y_v2_hastnae_19 <= 1
 0 <= y_v2_hastnae_20 <= 1
 0 <= y_v2_hastnae_21 <= 1
 0 <= y_v2_hastnae_23 <= 1
 0 <= y_v2_hastnae_25 <= 1
 0 <= y_v2_hastnae_26 <= 1
 0 <= y_v2_hastnae_27 <= 1
 0 <= y_v2_hastnae_29 <= 1
 0 <= y_v2_hastnae_30 <= 1
 0 <= y_v2_hastnae_31 <= 1
 0 <= y_v2_hastnae_32 <= 1
 0 <= y_v2_hastnae_34 <= 1
 0 <= y_v2_hastnae_35 <= 1
 0 <= y_v2_hastnae_37 <= 1
 0 <= y_v2_hastnae_38 <= 1
 0 <= y_v3_hastnae_0 <= 1
 0 <= y_v3_hastnae_2 <= 1
 0 <= y_v3_hastnae_4 <= 1
 0 <= y_v3_hastnae_6 <= 1
 0 <= y_v3_hastnae_8 <= 1
 0 <= y_v3_hastnae_11 <= 1
 0 <= y_v3_hastnae_12 <= 1
 0 <= y_v3_hastnae_13 <= 1
 0 <= y_v3_hastnae_14 <= 1
 0 <= y_v3_hastnae_15 <= 1
 0 <= y_v3_hastnae_16 <= 1
 0 <= y_v3_hastnae_17 <= 1
 0 <= y_v3_hastnae_18 <= 1
 0 <= y_v3_hastnae_19 <= 1
 0 <= y_v3_hastnae_20 <= 1
 0 <= y_v3_hastnae_21 <= 1
 0 <= y_v3_hastnae_22 <= 1
 0 <= y_v3_hastnae_23 <= 1
 0 <= y_v3_hastnae_24 <= 1
 0 <= y_v3_hastnae_25 <= 1
 0 <= y_v3_hastnae_26 <= 1
 0 <= y_v3_hastnae_29 <= 1
 0 <= y_v3_hastnae_30 <= 1
 0 <= y_v3_hastnae_31 <= 1
 0 <= y_v3_hastnae_32 <= 1
 0 <= y_v3_hastnae_34 <= 1
 0 <= y_v3_hastnae_35 <= 1
 0 <= y_v3_hastnae_37 <= 1
 0 <= y_v3_hastnae_38 <= 1
 0 <= y_v4_hastnae_0 <= 1
 0 <= y_v4_hastnae_2 <= 1
 0 <= y_v4_hastnae_4 <= 1
 0 <= y_v4_hastnae_5 <= 1
 0 <= y_v4_hastnae_6 <= 1
 0 <= y_v4_hastnae_8 <= 1
 0 <= y_v4_hastnae_11 <= 1
 0 <= y_v4_hastnae_13 <= 1
 0 <= y_v4_hastnae_14 <= 1
 0 <= y_v4_hastnae_15 <= 1
 0 <= y_v4_hastnae_16 <= 1
 0 <= y_v4_hastnae_18 <= 1
 0 <= y_v4_hastnae_19 <= 1
 0 <= y_v4_hastnae_20 <= 1
 0 <= y_v4_hastnae_21 <= 1
 0 <= y_v4_hastnae_22 <= 1
 0 <= y_v4_hastnae_23 <= 1
 0 <= y_v4_hastnae_24 <= 1
 0 <= y_v4_hastnae_25 <= 1
 0 <= y_v4_hastnae_26 <= 1
 0 <= y_v4_hastnae_29 <= 1
 0 <= y_v4_hastnae_30 <= 1
 0 <= y_v4_hastnae_31 <= 1
 0 <= y_v4_hastnae_32 <= 1
 0 <= y_v4_hastnae_33 <= 1
 0 <= y_v4_hastnae_34 <= 1
 0 <= y_v4_hastnae_35 <= 1
 0 <= y_v4_hastnae_37 <= 1
 0 <= y_v4_hastnae_38 <= 1
 0 <= y_v5_hastnae_0 <= 1
 0 <= y_v5_hastnae_5 <= 1
 0 <= y_v5_hastnae_6 <= 1
 0 <= y_v5_hastnae_8 <= 1
 0 <= y_v5_hastnae_13 <= 1
 0 <= y_v5_hastnae_14 <= 1
 0 <= y_v5_hastnae_15 <= 1
 0 <= y_v5_hastnae_16 <= 1
 0 <= y_v5_hastnae_18 <= 1
 0 <= y_v5_hastnae_19 <= 1
 0 <= y_v5_hastnae_20 <= 1
 0 <= y_v5_hastnae_21 <= 1
 0 <= y_v5_hastnae_23 <= 1
 0 <= y_v5_hastnae_24 <= 1
 0 <= y_v5_hastnae_25 <= 1
 0 <= y_v5_hastnae_26 <= 1
 0 <= y_v5_hastnae_28 <= 1
 0 <= y_v5_hastnae_29 <= 1
 0 <= y_v5_hastnae_30 <= 1
 0 <= y_v5_hastnae_31 <= 1
 0 <= y_v5_hastnae_34 <= 1
 0 <= y_v5_hastnae_35 <= 1
 0 <= y_v5_hastnae_37 <= 1
 0 <= y_v5_hastnae_38 <= 1
 0 <= y_v6_hastnae_2 <= 1
 0 <= y_v6_hastnae_3 <= 1
 0 <= y_v6_hastnae_4 <= 1
 0 <= y_v6_hastnae_6 <= 1
 0 <= y_v6_hastnae_7 <= 1
 0 <= y_v6_hastnae_8 <= 1
 0 <= y_v6_hastnae_9 <= 1
 0 <= y_v6_hastnae_11 <= 1
 0 <= y_v6_hastnae_13 <= 1
 0 <= y_v6_hastnae_15 <= 1
 0 <= y_v6_hastnae_16 <= 1
 0 <= y_v6_hastnae_17 <= 1
 0 <= y_v6_hastnae_18 <= 1
 0 <= y_v6_hastnae_19 <= 1
 0 <= y_v6_hastnae_21 <= 1
 0 <= y_v6_hastnae_23 <= 1
 0 <= y_v6_hastnae_25 <= 1
 0 <= y_v6_hastnae_26 <= 1
 0 <= y_v6_hastnae_27 <= 1
 0 <= y_v6_hastnae_29 <= 1
 0 <= y_v6_hastnae_30 <= 1
 0 <= y_v6_hastnae_32 <= 1
 0 <= y_v6_hastnae_34 <= 1
 0 <= y_v6_hastnae_35 <= 1
 0 <= y_v6_hastnae_36 <= 1
 0 <= y_v6_hastnae_37 <= 1
 0 <= y_v6_hastnae_38 <= 1
 0 <= y_v7_hastnae_0 <= 1
 0 <= y_v7_hastnae_2 <= 1
 0 <= y_v7_hastnae_3 <= 1
 0 <= y_v7_hastnae_4 <= 1
 0 <= y_v7_hastnae_5 <= 1
 0 <= y_v7_hastnae_6 <= 1
 0 <= y_v7_hastnae_7 <= 1
 0 <= y_v7_hastnae_8 <= 1
 0 <= y_v7_hastnae_9 <= 1
 0 <= y_v7_hastnae_10 <= 1
 0 <= y_v7_hastnae_11 <= 1
 0 <= y_v7_hastnae_12 <= 1
 0 <= y_v7_hastnae_13 <= 1
 0 <= y_v7_hastnae_14 <= 1
 0 <= y_v7_hastnae_15 <= 1
 0 <= y_v7_hastnae_16 <= 1
 0 <= y_v7_hastnae_17 <= 1
 0 <= y_v7_hastnae_18 <= 1
 0 <= y_v7_hastnae_19 <= 1
 0 <= y_v7_hastnae_20 <= 1
 0 <= y_v7_hastnae_21 <= 1
 0 <= y_v7_hastnae_22 <= 1
 0 <= y_v7_hastnae_23 <= 1
 0 <= y_v7_hastnae_25 <= 1
 0 <= y_v7_hastnae_26 <= 1
 0 <= y_v7_hastnae_27 <= 1
 0 <= y_v7_hastnae_29 <= 1
 0 <= y_v7_hastnae_30 <= 1
 0 <= y_v7_hastnae_31 <= 1
 0 <= y_v7_hastnae_32 <= 1
 0 <= y_v7_hastnae_33 <= 1
 0 <= y_v7_hastnae_34 <= 1
 0 <= y_v7_hastnae_35 <= 1
 0 <= y_v7_hastnae_36 <= 1
 0 <= y_v7_hastnae_37 <= 1
 0 <= y_v7_hastnae_38 <= 1
 0 <= y_v8_hastnae_0 <= 1
 0 <= y_v8_hastnae_2 <= 1
 0 <= y_v8_hastnae_3 <= 1
 0 <= y_v8_hastnae_4 <= 1
 0 <= y_v8_hastnae_5 <= 1
 0 <= y_v8_hastnae_6 <= 1
 0 <= y_v8_hastnae_8 <= 1
 0 <= y_v8_hastnae_9 <= 1
 0 <= y_v8_hastnae_11 <= 1
 0 <= y_v8_hastnae_12 <= 1
 0 <= y_v8_hastnae_13 <= 1
 0 <= y_v8_hastnae_14 <= 1
 0 <= y_v8_hastnae_15 <= 1
 0 <= y_v8_hastnae_16 <= 1
 0 <= y_v8_hastnae_17 <= 1
 0 <= y_v8_hastnae_18 <= 1
 0 <= y_v8_hastnae_19 <= 1
 0 <= y_v8_hastnae_20 <= 1
 0 <= y_v8_hastnae_21 <= 1
 0 <= y_v8_hastnae_22 <= 1
 0 <= y_v8_hastnae_23 <= 1
 0 <= y_v8_hastnae_24 <= 1
 0 <= y_v8_hastnae_25 <= 1
 0 <= y_v8_hastnae_26 <= 1
 0 <= y_v8_hastnae_27 <= 1
 0 <= y_v8_hastnae_28 <= 1
 0 <= y_v8_hastnae_29 <= 1
 0 <= y_v8_hastnae_30 <= 1
 0 <= y_v8_hastnae_31 <= 1
 0 <= y_v8_hastnae_32 <= 1
 0 <= y_v8_hastnae_33 <= 1
 0 <= y_v8_hastnae_34 <= 1
 0 <= y_v8_hastnae_35 <= 1
 0 <= y_v8_hastnae_37 <= 1
 0 <= y_v8_hastnae_38 <= 1
 0 <= y_v9_hastnae_0 <= 1
 0 <= y_v9_hastnae_1 <= 1
 0 <= y_v9_hastnae_2 <= 1
 0 <= y_v9_hastnae_3 <= 1
 0 <= y_v9_hastnae_4 <= 1
 0 <= y_v9_hastnae_5 <= 1
 0 <= y_v9_hastnae_6 <= 1
 0 <= y_v9_hastnae_8 <= 1
 0 <= y_v9_hastnae_11 <= 1
 0 <= y_v9_hastnae_12 <= 1
 0 <= y_v9_hastnae_13 <= 1
 0 <= y_v9_hastnae_14 <= 1
 0 <= y_v9_hastnae_15 <= 1
 0 <= y_v9_hastnae_16 <= 1
 0 <= y_v9_hastnae_17 <= 1
 0 <= y_v9_hastnae_18 <= 1
 0 <= y_v9_hastnae_19 <= 1
 0 <= y_v9_hastnae_20 <= 1
 0 <= y_v9_hastnae_21 <= 1
 0 <= y_v9_hastnae_22 <= 1
 0 <= y_v9_hastnae_23 <= 1
 0 <= y_v9_hastnae_24 <= 1
 0 <= y_v9_hastnae_25 <= 1
 0 <= y_v9_hastnae_26 <= 1
 0 <= y_v9_hastnae_27 <= 1
 0 <= y_v9_hastnae_28 <= 1
 0 <= y_v9_hastnae_29 <= 1
 0 <= y_v9_hastnae_30 <= 1
 0 <= y_v9_hastnae_31 <= 1
 0 <= y_v9_hastnae_32 <= 1
 0 <= y_v9_hastnae_33 <= 1
 0 <= y_v9_hastnae_34 <= 1
 0 <= y_v9_hastnae_35 <= 1
 0 <= y_v9_hastnae_37 <= 1
 0 <= y_v9_hastnae_38 <= 1
 0 <= y_v9_hastnae_39 <= 1
 0 <= y_v10_hastnae_0 <= 1
 0 <= y_v10_hastnae_5 <= 1
 0 <= y_v10_hastnae_6 <= 1
 0 <= y_v10_hastnae_8 <= 1
 0 <= y_v10_hastnae_12 <= 1
 0 <= y_v10_hastnae_13 <= 1
 0 <= y_v10_hastnae_14 <= 1
 0 <= y_v10_hastnae_15 <= 1
 0 <= y_v10_hastnae_16 <= 1
 0 <= y_v10_hastnae_17 <= 1
 0 <= y_v10_hastnae_18 <= 1
 0 <= y_v10_hastnae_19 <= 1
 0 <= y_v10_hastnae_20 <= 1
 0 <= y_v10_hastnae_21 <= 1
 0 <= y_v10_hastnae_22 <= 1
 0 <= y_v10_hastnae_23 <= 1
 0 <= y_v10_hastnae_24 <= 1
 0 <= y_v10_hastnae_25 <= 1
 0 <= y_v10_hastnae_26 <= 1
 0 <= y_v10_hastnae_28 <= 1
 0 <= y_v10_hastnae_29 <= 1
 0 <= y_v10_hastnae_30 <= 1
 0 <= y_v10_hastnae_31 <= 1
 0 <= y_v10_hastnae_33 <= 1
 0 <= y_v10_hastnae_34 <= 1
 0 <= y_v10_hastnae_35 <= 1
 0 <= y_v10_hastnae_37 <= 1
 0 <= y_v10_hastnae_38 <= 1
 0 <= y_v10_hastnae_39 <= 1
 0 <= y_v11_hastnae_0 <= 1
 0 <= y_v11_hastnae_2 <= 1
 0 <= y_v11_hastnae_3 <= 1
 0 <= y_v11_hastnae_4 <= 1
 0 <= y_v11_hastnae_5 <= 1
 0 <= y_v11_hastnae_6 <= 1
 0 <= y_v11_hastnae_7 <= 1
 0 <= y_v11_hastnae_8 <= 1
 0 <= y_v11_hastnae_9 <= 1
 0 <= y_v11_hastnae_10 <= 1
 0 <= y_v11_hastnae_11 <= 1
 0 <= y_v11_hastnae_12 <= 1
 0 <= y_v11_hastnae_16 <= 1
 0 <= y_v11_hastnae_17 <= 1
 0 <= y_v11_hastnae_18 <= 1
 0 <= y_v11_hastnae_19 <= 1
 0 <= y_v11_hastnae_21 <= 1
 0 <= y_v11_hastnae_22 <= 1
 0 <= y_v11_hastnae_25 <= 1
 0 <= y_v11_hastnae_27 <= 1
 0 <= y_v11_hastnae_29 <= 1
 0 <= y_v11_hastnae_30 <= 1
 0 <= y_v11_hastnae_31 <= 1
 0 <= y_v11_hastnae_32 <= 1
 0 <= y_v11_hastnae_33 <= 1
 0 <= y_v11_hastnae_34 <= 1
 0 <= y_v11_hastnae_35 <= 1
 0 <= y_v11_hastnae_36 <= 1
 0 <= y_v11_hastnae_37 <= 1
 0 <= y_v11_hastnae_38 <= 1

Binaries
 x_v12_hastnae x_v12_R x_v13_hastnae x_v13_R x_v14_hastnae x_v14_R x_v15_hastnae
 x_v15_R x_v16_hastnae x_v16_R x_v17_hastnae x_v17_R x_v18_hastnae x_v18_R
 x_v19_hastnae x_v19_R x_v20_hastnae x_v20_R x_v21_hastnae x_v21_R x_v22_hastnae
 x_v22_R x_v23_hastnae x_v23_R x_v24_hastnae x_v24_R x_v25_hastnae x_v25_R
 x_v1_hastnae x_v1_R x_v2_hastnae x_v2_R x_v3_hastnae x_v3_R x_v4_hastnae x_v4_R
 x_v5_hastnae x_v5_R x_v6_hastnae x_v6_R x_v7_hastnae x_v7_R x_v8_hastnae x_v8_R
 x_v9_hastnae x_v9_R x_v10_hastnae x_v10_R x_v11_hastnae x_v11_R u_hastnae_0
 u_hastnae_1 u_hastnae_2 u_hastnae_3 u_hastnae_4 u_hastnae_5 u_hastnae_6
 u_hastnae_7 u_hastnae_8 u_hastnae_9 u_hastnae_10 u_hastnae_11 u_hastnae_12
 u_hastnae_13 u_hastnae_14 u_hastnae_15 u_hastnae_16 u_hastnae_17 u_hastnae_18
 u_hastnae_19 u_hastnae_20 u_hastnae_21 u_hastnae_22 u_hastnae_23 u_hastnae_24
 u_hastnae_25 u_hastnae_26 u_hastnae_27 u_hastnae_28 u_hastnae_29 u_hastnae_30
 u_hastnae_31 u_hastnae_32 u_hastnae_33 u_hastnae_34 u_hastnae_35 u_hastnae_36
 u_hastnae_37 u_hastnae_38 u_hastnae_39 y_v12_hastnae_0 y_v12_hastnae_1
 y_v12_hastnae_2 y_v12_hastnae_3 y_v12_hastnae_4 y_v12_hastnae_5 y_v12_hastnae_6
 y_v12_hastnae_7 y_v12_hastnae_8 y_v12_hastnae_9 y_v12_hastnae_10
 y_v12_hastnae_11 y_v12_hastnae_12 y_v12_hastnae_13 y_v12_hastnae_15
 y_v12_hastnae_16 y_v12_hastnae_17 y_v12_hastnae_18 y_v12_hastnae_19
 y_v12_hastnae_20 y_v12_hastnae_21 y_v12_hastnae_22 y_v12_hastnae_23
 y_v12_hastnae_24 y_v12_hastnae_25 y_v12_hastnae_26 y_v12_hastnae_27
 y_v12_hastnae_28 y_v12_hastnae_29 y_v12_hastnae_30 y_v12_hastnae_31
 y_v12_hastnae_32 y_v12_hastnae_33 y_v12_hastnae_34 y_v12_hastnae_35
 y_v12_hastnae_36 y_v12_hastnae_37 y_v12_hastnae_38 y_v12_hastnae_39
 y_v13_hastnae_0 y_v13_hastnae_1 y_v13_hastnae_2 y_v13_hastnae_3 y_v13_hastnae_4
 y_v13_hastnae_5 y_v13_hastnae_6 y_v13_hastnae_7 y_v13_hastnae_8 y_v13_hastnae_9
 y_v13_hastnae_10 y_v13_hastnae_11 y_v13_hastnae_12 y_v13_hastnae_13
 y_v13_hastnae_14 y_v13_hastnae_15 y_v13_hastnae_16 y_v13_hastnae_17
 y_v13_hastnae_18 y_v13_hastnae_19 y_v13_hastnae_20 y_v13_hastnae_21
 y_v13_hastnae_22 y_v13_hastnae_23 y_v13_hastnae_24 y_v13_hastnae_25
 y_v13_hastnae_26 y_v13_hastnae_27 y_v13_hastnae_28 y_v13_hastnae_29
 y_v13_hastnae_30 y_v13_hastnae_31 y_v13_hastnae_32 y_v13_hastnae_33
 y_v13_hastnae_34 y_v13_hastnae_35 y_v13_hastnae_36 y_v13_hastnae_37
 y_v13_hastnae_38 y_v13_hastnae_39 y_v14_hastnae_0 y_v14_hastnae_1
 y_v14_hastnae_3 y_v14_hastnae_4 y_v14_hastnae_5 y_v14_hastnae_6 y_v14_hastnae_7
 y_v14_hastnae_8 y_v14_hastnae_9 y_v14_hastnae_10 y_v14_hastnae_11
 y_v14_hastnae_12 y_v14_hastnae_13 y_v14_hastnae_14 y_v14_hastnae_15
 y_v14_hastnae_16 y_v14_hastnae_17 y_v14_hastnae_18 y_v14_hastnae_19
 y_v14_hastnae_20 y_v14_hastnae_21 y_v14_hastnae_22 y_v14_hastnae_23
 y_v14_hastnae_24 y_v14_hastnae_25 y_v14_hastnae_26 y_v14_hastnae_27
 y_v14_hastnae_28 y_v14_hastnae_29 y_v14_hastnae_30 y_v14_hastnae_31
 y_v14_hastnae_32 y_v14_hastnae_33 y_v14_hastnae_34 y_v14_hastnae_35
 y_v14_hastnae_36 y_v14_hastnae_37 y_v14_hastnae_38 y_v14_hastnae_39
 y_v15_hastnae_0 y_v15_hastnae_1 y_v15_hastnae_3 y_v15_hastnae_4 y_v15_hastnae_5
 y_v15_hastnae_6 y_v15_hastnae_12 y_v15_hastnae_13 y_v15_hastnae_14
 y_v15_hastnae_15 y_v15_hastnae_16 y_v15_hastnae_17 y_v15_hastnae_18
 y_v15_hastnae_19 y_v15_hastnae_20 y_v15_hastnae_21 y_v15_hastnae_22
 y_v15_hastnae_23 y_v15_hastnae_24 y_v15_hastnae_25 y_v15_hastnae_26
 y_v15_hastnae_27 y_v15_hastnae_28 y_v15_hastnae_29 y_v15_hastnae_31
 y_v15_hastnae_32 y_v15_hastnae_33 y_v15_hastnae_34 y_v15_hastnae_35
 y_v15_hastnae_37 y_v15_hastnae_39 y_v16_hastnae_0 y_v16_hastnae_1
 y_v16_hastnae_2 y_v16_hastnae_3 y_v16_hastnae_4 y_v16_hastnae_5 y_v16_hastnae_7
 y_v16_hastnae_8 y_v16_hastnae_9 y_v16_hastnae_10 y_v16_hastnae_11
 y_v16_hastnae_12 y_v16_hastnae_17 y_v16_hastnae_18 y_v16_hastnae_19
 y_v16_hastnae_21 y_v16_hastnae_22 y_v16_hastnae_27 y_v16_hastnae_29
 y_v16_hastnae_30 y_v16_hastnae_31 y_v16_hastnae_32 y_v16_hastnae_33
 y_v16_hastnae_34 y_v16_hastnae_35 y_v16_hastnae_36 y_v16_hastnae_37
 y_v16_hastnae_38 y_v16_hastnae_39 y_v17_hastnae_0 y_v17_hastnae_1
 y_v17_hastnae_2 y_v17_hastnae_3 y_v17_hastnae_4 y_v17_hastnae_5 y_v17_hastnae_6
 y_v17_hastnae_7 y_v17_hastnae_8 y_v17_hastnae_9 y_v17_hastnae_10
 y_v17_hastnae_11 y_v17_hastnae_12 y_v17_hastnae_15 y_v17_hastnae_16
 y_v17_hastnae_17 y_v17_hastnae_18 y_v17_hastnae_19 y_v17_hastnae_20
 y_v17_hastnae_21 y_v17_hastnae_22 y_v17_hastnae_24 y_v17_hastnae_25
 y_v17_hastnae_26 y_v17_hastnae_27 y_v17_hastnae_28 y_v17_hastnae_29
 y_v17_hastnae_30 y_v17_hastnae_31 y_v17_hastnae_32 y_v17_hastnae_33
 y_v17_hastnae_34 y_v17_hastnae_35 y_v17_hastnae_36 y_v17_hastnae_37
 y_v17_hastnae_38 y_v17_hastnae_39 y_v18_hastnae_0 y_v18_hastnae_1
 y_v18_hastnae_3 y_v18_hastnae_4 y_v18_hastnae_5 y_v18_hastnae_6 y_v18_hastnae_7
 y_v18_hastnae_9 y_v18_hastnae_10 y_v18_hastnae_11 y_v18_hastnae_12
 y_v18_hastnae_13 y_v18_hastnae_14 y_v18_hastnae_15 y_v18_hastnae_16
 y_v18_hastnae_17 y_v18_hastnae_18 y_v18_hastnae_19 y_v18_hastnae_20
 y_v18_hastnae_21 y_v18_hastnae_22 y_v18_hastnae_24 y_v18_hastnae_25
 y_v18_hastnae_26 y_v18_hastnae_27 y_v18_hastnae_28 y_v18_hastnae_29
 y_v18_hastnae_30 y_v18_hastnae_31 y_v18_hastnae_32 y_v18_hastnae_33
 y_v18_hastnae_34 y_v18_hastnae_35 y_v18_hastnae_36 y_v18_hastnae_37
 y_v18_hastnae_38 y_v18_hastnae_39 y_v19_hastnae_0 y_v19_hastnae_1
 y_v19_hastnae_3 y_v19_hastnae_4 y_v19_hastnae_5 y_v19_hastnae_6 y_v19_hastnae_7
 y_v19_hastnae_9 y_v19_hastnae_10 y_v19_hastnae_11 y_v19_hastnae_12
 y_v19_hastnae_13 y_v19_hastnae_14 y_v19_hastnae_15 y_v19_hastnae_17
 y_v19_hastnae_18 y_v19_hastnae_19 y_v19_hastnae_20 y_v19_hastnae_21
 y_v19_hastnae_22 y_v19_hastnae_23 y_v19_hastnae_24 y_v19_hastnae_25
 y_v19_hastnae_26 y_v19_hastnae_27 y_v19_hastnae_28 y_v19_hastnae_29
 y_v19_hastnae_30 y_v19_hastnae_31 y_v19_hastnae_32 y_v19_hastnae_33
 y_v19_hastnae_34 y_v19_hastnae_35 y_v19_hastnae_36 y_v19_hastnae_37
 y_v19_hastnae_38 y_v19_hastnae_39 y_v20_hastnae_0 y_v20_hastnae_1
 y_v20_hastnae_3 y_v20_hastnae_4 y_v20_hastnae_5 y_v20_hastnae_6
 y_v20_hastnae_10 y_v20_hastnae_12 y_v20_hastnae_14 y_v20_hastnae_15
 y_v20_hastnae_17 y_v20_hastnae_18 y_v20_hastnae_19 y_v20_hastnae_20
 y_v20_hastnae_21 y_v20_hastnae_22 y_v20_hastnae_23 y_v20_hastnae_24
 y_v20_hastnae_25 y_v20_hastnae_26 y_v20_hastnae_27 y_v20_hastnae_28
 y_v20_hastnae_29 y_v20_hastnae_31 y_v20_hastnae_32 y_v20_hastnae_33
 y_v20_hastnae_34 y_v20_hastnae_35 y_v20_hastnae_36 y_v20_hastnae_37
 y_v20_hastnae_39 y_v21_hastnae_1 y_v21_hastnae_2 y_v21_hastnae_3
 y_v21_hastnae_4 y_v21_hastnae_5 y_v21_hastnae_7 y_v21_hastnae_9
 y_v21_hastnae_10 y_v21_hastnae_11 y_v21_hastnae_12 y_v21_hastnae_17
 y_v21_hastnae_18 y_v21_hastnae_19 y_v21_hastnae_21 y_v21_hastnae_22
 y_v21_hastnae_27 y_v21_hastnae_30 y_v21_hastnae_31 y_v21_hastnae_32
 y_v21_hastnae_33 y_v21_hastnae_36 y_v21_hastnae_39 y_v22_hastnae_0
 y_v22_hastnae_1 y_v22_hastnae_3 y_v22_hastnae_4 y_v22_hastnae_5 y_v22_hastnae_7
 y_v22_hastnae_9 y_v22_hastnae_10 y_v22_hastnae_11 y_v22_hastnae_12
 y_v22_hastnae_17 y_v22_hastnae_18 y_v22_hastnae_19 y_v22_hastnae_21
 y_v22_hastnae_22 y_v22_hastnae_24 y_v22_hastnae_27 y_v22_hastnae_28
 y_v22_hastnae_29 y_v22_hastnae_30 y_v22_hastnae_31 y_v22_hastnae_32
 y_v22_hastnae_33 y_v22_hastnae_34 y_v22_hastnae_35 y_v22_hastnae_36
 y_v22_hastnae_37 y_v22_hastnae_38 y_v22_hastnae_39 y_v23_hastnae_0
 y_v23_hastnae_1 y_v23_hastnae_3 y_v23_hastnae_4 y_v23_hastnae_5 y_v23_hastnae_7
 y_v23_hastnae_9 y_v23_hastnae_10 y_v23_hastnae_12 y_v23_hastnae_17
 y_v23_hastnae_18 y_v23_hastnae_19 y_v23_hastnae_21 y_v23_hastnae_22
 y_v23_hastnae_24 y_v23_hastnae_27 y_v23_hastnae_28 y_v23_hastnae_31
 y_v23_hastnae_32 y_v23_hastnae_33 y_v23_hastnae_34 y_v23_hastnae_35
 y_v23_hastnae_36 y_v23_hastnae_37 y_v23_hastnae_39 y_v24_hastnae_0
 y_v24_hastnae_1 y_v24_hastnae_3 y_v24_hastnae_4 y_v24_hastnae_5 y_v24_hastnae_7
 y_v24_hastnae_9 y_v24_hastnae_10 y_v24_hastnae_12 y_v24_hastnae_15
 y_v24_hastnae_17 y_v24_hastnae_18 y_v24_hastnae_19 y_v24_hastnae_20
 y_v24_hastnae_21 y_v24_hastnae_22 y_v24_hastnae_24 y_v24_hastnae_25
 y_v24_hastnae_26 y_v24_hastnae_27 y_v24_hastnae_28 y_v24_hastnae_31
 y_v24_hastnae_32 y_v24_hastnae_33 y_v24_hastnae_34 y_v24_hastnae_35
 y_v24_hastnae_36 y_v24_hastnae_37 y_v24_hastnae_39 y_v25_hastnae_0
 y_v25_hastnae_1 y_v25_hastnae_3 y_v25_hastnae_4 y_v25_hastnae_5
 y_v25_hastnae_10 y_v25_hastnae_12 y_v25_hastnae_14 y_v25_hastnae_15
 y_v25_hastnae_17 y_v25_hastnae_18 y_v25_hastnae_20 y_v25_hastnae_21
 y_v25_hastnae_22 y_v25_hastnae_24 y_v25_hastnae_27 y_v25_hastnae_28
 y_v25_hastnae_31 y_v25_hastnae_33 y_v25_hastnae_34 y_v25_hastnae_35
 y_v25_hastnae_36 y_v25_hastnae_37 y_v25_hastnae_39 y_v1_hastnae_2
 y_v1_hastnae_3 y_v1_hastnae_4 y_v1_hastnae_6 y_v1_hastnae_7 y_v1_hastnae_8
 y_v1_hastnae_9 y_v1_hastnae_11 y_v1_hastnae_13 y_v1_hastnae_15 y_v1_hastnae_16
 y_v1_hastnae_19 y_v1_hastnae_21 y_v1_hastnae_23 y_v1_hastnae_25 y_v1_hastnae_26
 y_v1_hastnae_29 y_v1_hastnae_30 y_v1_hastnae_32 y_v1_hastnae_34 y_v1_hastnae_37
 y_v1_hastnae_38 y_v2_hastnae_0 y_v2_hastnae_2 y_v2_hastnae_3 y_v2_hastnae_4
 y_v2_hastnae_6 y_v2_hastnae_8 y_v2_hastnae_9 y_v2_hastnae_11 y_v2_hastnae_13
 y_v2_hastnae_14 y_v2_hastnae_15 y_v2_hastnae_16 y_v2_hastnae_17 y_v2_hastnae_18
 y_v2_hastnae_19 y_v2_hastnae_20 y_v2_hastnae_21 y_v2_hastnae_23 y_v2_hastnae_25
 y_v2_hastnae_26 y_v2_hastnae_27 y_v2_hastnae_29 y_v2_hastnae_30 y_v2_hastnae_31
 y_v2_hastnae_32 y_v2_hastnae_34 y_v2_hastnae_35 y_v2_hastnae_37 y_v2_hastnae_38
 y_v3_hastnae_0 y_v3_hastnae_2 y_v3_hastnae_4 y_v3_hastnae_6 y_v3_hastnae_8
 y_v3_hastnae_11 y_v3_hastnae_12 y_v3_hastnae_13 y_v3_hastnae_14 y_v3_hastnae_15
 y_v3_hastnae_16 y_v3_hastnae_17 y_v3_hastnae_18 y_v3_hastnae_19 y_v3_hastnae_20
 y_v3_hastnae_21 y_v3_hastnae_22 y_v3_hastnae_23 y_v3_hastnae_24 y_v3_hastnae_25
 y_v3_hastnae_26 y_v3_hastnae_29 y_v3_hastnae_30 y_v3_hastnae_31 y_v3_hastnae_32
 y_v3_hastnae_34 y_v3_hastnae_35 y_v3_hastnae_37 y_v3_hastnae_38 y_v4_hastnae_0
 y_v4_hastnae_2 y_v4_hastnae_4 y_v4_hastnae_5 y_v4_hastnae_6 y_v4_hastnae_8
 y_v4_hastnae_11 y_v4_hastnae_13 y_v4_hastnae_14 y_v4_hastnae_15 y_v4_hastnae_16
 y_v4_hastnae_18 y_v4_hastnae_19 y_v4_hastnae_20 y_v4_hastnae_21 y_v4_hastnae_22
 y_v4_hastnae_23 y_v4_hastnae_24 y_v4_hastnae_25 y_v4_hastnae_26 y_v4_hastnae_29
 y_v4_hastnae_30 y_v4_hastnae_31 y_v4_hastnae_32 y_v4_hastnae_33 y_v4_hastnae_34
 y_v4_hastnae_35 y_v4_hastnae_37 y_v4_hastnae_38 y_v5_hastnae_0 y_v5_hastnae_5
 y_v5_hastnae_6 y_v5_hastnae_8 y_v5_hastnae_13 y_v5_hastnae_14 y_v5_hastnae_15
 y_v5_hastnae_16 y_v5_hastnae_18 y_v5_hastnae_19 y_v5_hastnae_20 y_v5_hastnae_21
 y_v5_hastnae_23 y_v5_hastnae_24 y_v5_hastnae_25 y_v5_hastnae_26 y_v5_hastnae_28
 y_v5_hastnae_29 y_v5_hastnae_30 y_v5_hastnae_31 y_v5_hastnae_34 y_v5_hastnae_35
 y_v5_hastnae_37 y_v5_hastnae_38 y_v6_hastnae_2 y_v6_hastnae_3 y_v6_hastnae_4
 y_v6_hastnae_6 y_v6_hastnae_7 y_v6_hastnae_8 y_v6_hastnae_9 y_v6_hastnae_11
 y_v6_hastnae_13 y_v6_hastnae_15 y_v6_hastnae_16 y_v6_hastnae_17 y_v6_hastnae_18
 y_v6_hastnae_19 y_v6_hastnae_21 y_v6_hastnae_23 y_v6_hastnae_25 y_v6_hastnae_26
 y_v6_hastnae_27 y_v6_hastnae_29 y_v6_hastnae_30 y_v6_hastnae_32 y_v6_hastnae_34
 y_v6_hastnae_35 y_v6_hastnae_36 y_v6_hastnae_37 y_v6_hastnae_38 y_v7_hastnae_0
 y_v7_hastnae_2 y_v7_hastnae_3 y_v7_hastnae_4 y_v7_hastnae_5 y_v7_hastnae_6
 y_v7_hastnae_7 y_v7_hastnae_8 y_v7_hastnae_9 y_v7_hastnae_10 y_v7_hastnae_11
 y_v7_hastnae_12 y_v7_hastnae_13 y_v7_hastnae_14 y_v7_hastnae_15 y_v7_hastnae_16
 y_v7_hastnae_17 y_v7_hastnae_18 y_v7_hastnae_19 y_v7_hastnae_20 y_v7_hastnae_21
 y_v7_hastnae_22 y_v7_hastnae_23 y_v7_hastnae_25 y_v7_hastnae_26 y_v7_hastnae_27
 y_v7_hastnae_29 y_v7_hastnae_30 y_v7_hastnae_31 y_v7_hastnae_32 y_v7_hastnae_33
 y_v7_hastnae_34 y_v7_hastnae_35 y_v7_hastnae_36 y_v7_hastnae_37 y_v7_hastnae_38
 y_v8_hastnae_0 y_v8_hastnae_2 y_v8_hastnae_3 y_v8_hastnae_4 y_v8_hastnae_5
 y_v8_hastnae_6 y_v8_hastnae_8 y_v8_hastnae_9 y_v8_hastnae_11 y_v8_hastnae_12
 y_v8_hastnae_13 y_v8_hastnae_14 y_v8_hastnae_15 y_v8_hastnae_16 y_v8_hastnae_17
 y_v8_hastnae_18 y_v8_hastnae_19 y_v8_hastnae_20 y_v8_hastnae_21 y_v8_hastnae_22
 y_v8_hastnae_23 y_v8_hastnae_24 y_v8_hastnae_25 y_v8_hastnae_26 y_v8_hastnae_27
 y_v8_hastnae_28 y_v8_hastnae_29 y_v8_hastnae_30 y_v8_hastnae_31 y_v8_hastnae_32
 y_v8_hastnae_33 y_v8_hastnae_34 y_v8_hastnae_35 y_v8_hastnae_37 y_v8_hastnae_38
 y_v9_hastnae_0 y_v9_hastnae_1 y_v9_hastnae_2 y_v9_hastnae_3 y_v9_hastnae_4
 y_v9_hastnae_5 y_v9_hastnae_6 y_v9_hastnae_8 y_v9_hastnae_11 y_v9_hastnae_12
 y_v9_hastnae_13 y_v9_hastnae_14 y_v9_hastnae_15 y_v9_hastnae_16 y_v9_hastnae_17
 y_v9_hastnae_18 y_v9_hastnae_19 y_v9_hastnae_20 y_v9_hastnae_21 y_v9_hastnae_22
 y_v9_hastnae_23 y_v9_hastnae_24 y_v9_hastnae_25 y_v9_hastnae_26 y_v9_hastnae_27
 y_v9_hastnae_28 y_v9_hastnae_29 y_v9_hastnae_30 y_v9_hastnae_31 y_v9_hastnae_32
 y_v9_hastnae_33 y_v9_hastnae_34 y_v9_hastnae_35 y_v9_hastnae_37 y_v9_hastnae_38
 y_v9_hastnae_39 y_v10_hastnae_0 y_v10_hastnae_5 y_v10_hastnae_6 y_v10_hastnae_8
 y_v10_hastnae_12 y_v10_hastnae_13 y_v10_hastnae_14 y_v10_hastnae_15
 y_v10_hastnae_16 y_v10_hastnae_17 y_v10_hastnae_18 y_v10_hastnae_19
 y_v10_hastnae_20 y_v10_hastnae_21 y_v10_hastnae_22 y_v10_hastnae_23
 y_v10_hastnae_24 y_v10_hastnae_25 y_v10_hastnae_26 y_v10_hastnae_28
 y_v10_hastnae_29 y_v10_hastnae_30 y_v10_hastnae_31 y_v10_hastnae_33
 y_v10_hastnae_34 y_v10_hastnae_35 y_v10_hastnae_37 y_v10_hastnae_38
 y_v10_hastnae_39 y_v11_hastnae_0 y_v11_hastnae_2 y_v11_hastnae_3
 y_v11_hastnae_4 y_v11_hastnae_5 y_v11_hastnae_6 y_v11_hastnae_7 y_v11_hastnae_8
 y_v11_hastnae_9 y_v11_hastnae_10 y_v11_hastnae_11 y_v11_hastnae_12
 y_v11_hastnae_16 y_v11_hastnae_17 y_v11_hastnae_18 y_v11_hastnae_19
 y_v11_hastnae_21 y_v11_hastnae_22 y_v11_hastnae_25 y_v11_hastnae_27
 y_v11_hastnae_29 y_v11_hastnae_30 y_v11_hastnae_31 y_v11_hastnae_32
 y_v11_hastnae_33 y_v11_hastnae_34 y_v11_hastnae_35 y_v11_hastnae_36
 y_v11_hastnae_37 y_v11_hastnae_38
End
